LAMMPS (17 Nov 2015)
WARNING: OMP_NUM_THREADS environment is not set. (../comm.cpp:90)
  using 1 OpenMP thread(s) per MPI task
# DEFINE NUMBER OF X,Z STEPS
# l = velocity k = indenter radius i, j = hiting location
variable imax equal 30
variable kmax equal 1
variable lmax equal 1
variable jmax equal 1
variable jstart equal 0
variable jrate equal 5
variable countmax equal "v_jrate*v_imax*(v_imax+1)/2 + v_jstart*v_imax"

# DEFINE TOTAL NUMBER OF STEPS
variable count loop ${countmax}
variable count loop 2325

print "imax = ${imax}"
imax = 30
print "jmax = ${jmax}"
jmax = 1
print "kmax = ${kmax}"
kmax = 1
print "lmax = ${lmax}"
lmax = 1

# START LOOPS
# Loop 1
label start_of_loop_1
variable l loop ${lmax}
variable l loop 1

# Loop 2
label start_of_loop_2
variable k loop ${kmax}
variable k loop 1

# Loop 3
label start_of_loop_3
variable i loop ${imax}
variable i loop 30

variable jmax equal "5*v_i"

print "imax = ${imax}"
imax = 30
print "jmax = ${jmax}"
jmax = 5

# Loop 4
label start_of_loop_4
variable j loop ${jmax}
variable j loop 5
clear
WARNING: OMP_NUM_THREADS environment is not set. (../comm.cpp:90)
  using 1 OpenMP thread(s) per MPI task

# DEFINE INITIAL CONDITIONS
# small Peridynamic cylinder hit by projectile
units		si
boundary        s s s
dimension	3
atom_style      peri
atom_modify	map array
neighbor        0.0010 bin

# small target
lattice         sc 0.001
Lattice spacing in x,y,z = 0.001 0.001 0.001
region          target cylinder y 0.0 0.0 0.037 -0.0025 0.0 units box
create_box      1 target
Created orthogonal box = (-0.037 -0.0025 -0.037) to (0.037 0 0.037)
  1 by 1 by 1 MPI processor grid
create_atoms    1 region target
Created 12855 atoms

pair_style      peri/pmb
pair_coeff      * * 1.6863e22 0.0015001 0.0005 0.25
set             group all density 2200
  12855 settings made for density
set             group all volume 1.25e-10
  12855 settings made for volume
velocity        all set 0.0 0.0 0.0 sum no units box
fix             1 all nve
fix             2 all indent 1e16 sphere v_x v_y v_z v_w units box


print "Iteration:  i = $i , j = $j, k = $k, l = $l "
Iteration:  i = 1 , j = 1, k = 1, l = 1 

print " "
 
print " "
 
print "----------------------------------------------------------------"
----------------------------------------------------------------
print "Iteration ${count} of ${countmax}"
Iteration 1 of 2325
print "----------------------------------------------------------------"
----------------------------------------------------------------
print " "
 

# Reset current timestep
reset_timestep 0

# spherical indenter to shatter target

#q is velocity for indent.txt
variable         q equal "1+(0.001*v_l)"

# indenter radius (w) for indent.txt
variable         w equal "0.0020+(0.001*v_k)"

#disk radius(v_r)
variable r equal 0.037

variable        y0 equal 0.00510
variable        vy equal -100
variable        y equal "v_y0 + v_q*step*dt*v_vy"

#Hit the whole disk
#variable        x equal "cos((PI/2)*v_i/v_imax)*((v_i-1)/v_imax*v_r)"
#variable        z equal "sin((PI/2)*v_j/v_jmax)*((v_j-1)/v_jmax*v_r)"

#Hit the disk reduced 5times compare to disk size
variable        x equal "cos((2*PI)*v_j/v_jmax)*(v_i/v_imax)*v_r*(0.3)"
variable        z equal "sin((2*PI)*v_j/v_jmax)*(v_i/v_imax)*v_r*(0.3)"

compute         1 all damage/atom
timestep        1.0e-7
thermo          100

dump            ${count} all custom 1000 Data/dump_${count}.peri id type x y z c_1
dump            1 all custom 1000 Data/dump_${count}.peri id type x y z c_1
dump            1 all custom 1000 Data/dump_1.peri id type x y z c_1

run             1000
Neighbor list info ...
  2 neighbor list requests
  update every 1 steps, delay 10 steps, check yes
  max neighbors/atom: 2000, page size: 100000
  master list distance cutoff = 0.0025001
  ghost atom cutoff = 0.0025001
  binsize = 0.00125005 -> bins = 60 3 60
Peridynamic bonds:
  total # of bonds = 185180
  bonds/atom = 14.4053
Memory usage per processor = 9.32606 Mbytes
Step Temp E_pair E_mol TotEng Press Volume 
       0            0            0            0            0            0 1.095912e-05 
     100            0            0            0            0            0 1.095912e-05 
     200            0            0            0            0            0 1.095912e-05 
     300 8.3684781e+22    29474.151            0    51751.308 1.3551671e+09 1.095912e-05 
     400 9.3834138e+24    1445297.5            0    3943192.3 1.5195227e+11 1.095912e-05 
     500 1.5026209e+26    9744000.4            0     49744249 2.4333005e+12 1.095912e-05 
     600 6.408499e+26     18276784            0 1.8887308e+08 8.0796068e+12 1.4076287e-05 
     700 1.5324924e+27    9280420.4            0 4.1723481e+08 1.1204116e+13 2.4274078e-05 
     800 2.0236077e+27    6151536.5            0 5.4484239e+08 1.0480303e+13 3.4266874e-05 
     900 2.0698628e+27    4989971.5            0 5.5599409e+08 7.4458921e+12 4.9334059e-05 
    1000 2.068999e+27    3822734.9            0 5.5459689e+08 5.8440487e+12 6.2830203e-05 
Loop time of 19.7228 on 1 procs for 1000 steps with 12855 atoms

99.1% CPU use with 1 MPI tasks x 1 OpenMP threads

MPI task timing breakdown:
Section |  min time  |  avg time  |  max time  |%varavg| %total
---------------------------------------------------------------
Pair    | 18.573     | 18.573     | 18.573     |   0.0 | 94.17
Neigh   | 0.20577    | 0.20577    | 0.20577    |   0.0 |  1.04
Comm    | 0.0049729  | 0.0049729  | 0.0049729  |   0.0 |  0.03
Output  | 0.032187   | 0.032187   | 0.032187   |   0.0 |  0.16
Modify  | 0.70721    | 0.70721    | 0.70721    |   0.0 |  3.59
Other   |            | 0.1994     |            |       |  1.01

Nlocal:    12855 ave 12855 max 12855 min
Histogram: 1 0 0 0 0 0 0 0 0 0
Nghost:    0 ave 0 max 0 min
Histogram: 1 0 0 0 0 0 0 0 0 0
Neighs:    333350 ave 333350 max 333350 min
Histogram: 1 0 0 0 0 0 0 0 0 0
FullNghs:  674306 ave 674306 max 674306 min
Histogram: 1 0 0 0 0 0 0 0 0 0

Total # of neighbors = 674306
Ave neighs/atom = 52.4548
Neighbor list builds = 16
Dangerous builds = 0

# SAVE INDENTER
print $x file Data/indenter_${count}.txt
print 0.000114336287918731 file Data/indenter_${count}.txt
print 0.000114336287918731 file Data/indenter_1.txt
0.000114336287918731
print $z append Data/indenter_${count}.txt
print 0.000351890911029207 append Data/indenter_${count}.txt
print 0.000351890911029207 append Data/indenter_1.txt
0.000351890911029207
print $w append Data/indenter_${count}.txt
print 0.003 append Data/indenter_${count}.txt
print 0.003 append Data/indenter_1.txt
0.003
print $q append Data/indenter_${count}.txt
print 1.001 append Data/indenter_${count}.txt
print 1.001 append Data/indenter_1.txt
1.001

next j
next count
jump SELF start_of_loop_4
variable j loop ${jmax}
variable j loop 5
clear
WARNING: OMP_NUM_THREADS environment is not set. (../comm.cpp:90)
  using 1 OpenMP thread(s) per MPI task

# DEFINE INITIAL CONDITIONS
# small Peridynamic cylinder hit by projectile
units		si
boundary        s s s
dimension	3
atom_style      peri
atom_modify	map array
neighbor        0.0010 bin

# small target
lattice         sc 0.001
Lattice spacing in x,y,z = 0.001 0.001 0.001
region          target cylinder y 0.0 0.0 0.037 -0.0025 0.0 units box
create_box      1 target
Created orthogonal box = (-0.037 -0.0025 -0.037) to (0.037 0 0.037)
  1 by 1 by 1 MPI processor grid
create_atoms    1 region target
Created 12855 atoms

pair_style      peri/pmb
pair_coeff      * * 1.6863e22 0.0015001 0.0005 0.25
set             group all density 2200
  12855 settings made for density
set             group all volume 1.25e-10
  12855 settings made for volume
velocity        all set 0.0 0.0 0.0 sum no units box
fix             1 all nve
fix             2 all indent 1e16 sphere v_x v_y v_z v_w units box


print "Iteration:  i = $i , j = $j, k = $k, l = $l "
Iteration:  i = 1 , j = 2, k = 1, l = 1 

print " "
 
print " "
 
print "----------------------------------------------------------------"
----------------------------------------------------------------
print "Iteration ${count} of ${countmax}"
Iteration 2 of 2325
print "----------------------------------------------------------------"
----------------------------------------------------------------
print " "
 

# Reset current timestep
reset_timestep 0

# spherical indenter to shatter target

#q is velocity for indent.txt
variable         q equal "1+(0.001*v_l)"

# indenter radius (w) for indent.txt
variable         w equal "0.0020+(0.001*v_k)"

#disk radius(v_r)
variable r equal 0.037

variable        y0 equal 0.00510
variable        vy equal -100
variable        y equal "v_y0 + v_q*step*dt*v_vy"

#Hit the whole disk
#variable        x equal "cos((PI/2)*v_i/v_imax)*((v_i-1)/v_imax*v_r)"
#variable        z equal "sin((PI/2)*v_j/v_jmax)*((v_j-1)/v_jmax*v_r)"

#Hit the disk reduced 5times compare to disk size
variable        x equal "cos((2*PI)*v_j/v_jmax)*(v_i/v_imax)*v_r*(0.3)"
variable        z equal "sin((2*PI)*v_j/v_jmax)*(v_i/v_imax)*v_r*(0.3)"

compute         1 all damage/atom
timestep        1.0e-7
thermo          100

dump            ${count} all custom 1000 Data/dump_${count}.peri id type x y z c_1
dump            2 all custom 1000 Data/dump_${count}.peri id type x y z c_1
dump            2 all custom 1000 Data/dump_2.peri id type x y z c_1

run             1000
Neighbor list info ...
  2 neighbor list requests
  update every 1 steps, delay 10 steps, check yes
  max neighbors/atom: 2000, page size: 100000
  master list distance cutoff = 0.0025001
  ghost atom cutoff = 0.0025001
  binsize = 0.00125005 -> bins = 60 3 60
Peridynamic bonds:
  total # of bonds = 185180
  bonds/atom = 14.4053
Memory usage per processor = 9.32606 Mbytes
Step Temp E_pair E_mol TotEng Press Volume 
       0            0            0            0            0            0 1.095912e-05 
     100            0            0            0            0            0 1.095912e-05 
     200            0            0            0            0            0 1.095912e-05 
     300 8.3555768e+22    29473.883            0    51716.696 1.3530779e+09 1.095912e-05 
     400 9.3798203e+24    1449695.2            0    3946633.4 1.5189408e+11 1.095912e-05 
     500 1.4922099e+26    9809380.9            0     49532486 2.4164413e+12 1.095912e-05 
     600 6.3911501e+26     17826592            0 1.8796106e+08 8.0320551e+12 1.412129e-05 
     700 1.5499898e+27     10729495            0 4.2334176e+08 1.0681503e+13 2.5752448e-05 
     800 2.0669287e+27    4832243.2            0 5.5505528e+08 9.9016686e+12 3.7045813e-05 
     900 2.1178399e+27    5551854.7            0 5.6932763e+08 7.4540694e+12 5.0422192e-05 
    1000 2.1190782e+27    3703042.6            0 5.6780844e+08 5.5038779e+12 6.8328235e-05 
Loop time of 19.6669 on 1 procs for 1000 steps with 12855 atoms

99.4% CPU use with 1 MPI tasks x 1 OpenMP threads

MPI task timing breakdown:
Section |  min time  |  avg time  |  max time  |%varavg| %total
---------------------------------------------------------------
Pair    | 18.519     | 18.519     | 18.519     |   0.0 | 94.16
Neigh   | 0.21012    | 0.21012    | 0.21012    |   0.0 |  1.07
Comm    | 0.0088625  | 0.0088625  | 0.0088625  |   0.0 |  0.05
Output  | 0.033261   | 0.033261   | 0.033261   |   0.0 |  0.17
Modify  | 0.70119    | 0.70119    | 0.70119    |   0.0 |  3.57
Other   |            | 0.1947     |            |       |  0.99

Nlocal:    12855 ave 12855 max 12855 min
Histogram: 1 0 0 0 0 0 0 0 0 0
Nghost:    0 ave 0 max 0 min
Histogram: 1 0 0 0 0 0 0 0 0 0
Neighs:    333219 ave 333219 max 333219 min
Histogram: 1 0 0 0 0 0 0 0 0 0
FullNghs:  674306 ave 674306 max 674306 min
Histogram: 1 0 0 0 0 0 0 0 0 0

Total # of neighbors = 674306
Ave neighs/atom = 52.4548
Neighbor list builds = 16
Dangerous builds = 0

# SAVE INDENTER
print $x file Data/indenter_${count}.txt
print -0.000299336287918731 file Data/indenter_${count}.txt
print -0.000299336287918731 file Data/indenter_2.txt
-0.000299336287918731
print $z append Data/indenter_${count}.txt
print 0.000217480543348215 append Data/indenter_${count}.txt
print 0.000217480543348215 append Data/indenter_2.txt
0.000217480543348215
print $w append Data/indenter_${count}.txt
print 0.003 append Data/indenter_${count}.txt
print 0.003 append Data/indenter_2.txt
0.003
print $q append Data/indenter_${count}.txt
print 1.001 append Data/indenter_${count}.txt
print 1.001 append Data/indenter_2.txt
1.001

next j
next count
jump SELF start_of_loop_4
variable j loop ${jmax}
variable j loop 5
clear
WARNING: OMP_NUM_THREADS environment is not set. (../comm.cpp:90)
  using 1 OpenMP thread(s) per MPI task

# DEFINE INITIAL CONDITIONS
# small Peridynamic cylinder hit by projectile
units		si
boundary        s s s
dimension	3
atom_style      peri
atom_modify	map array
neighbor        0.0010 bin

# small target
lattice         sc 0.001
Lattice spacing in x,y,z = 0.001 0.001 0.001
region          target cylinder y 0.0 0.0 0.037 -0.0025 0.0 units box
create_box      1 target
Created orthogonal box = (-0.037 -0.0025 -0.037) to (0.037 0 0.037)
  1 by 1 by 1 MPI processor grid
create_atoms    1 region target
Created 12855 atoms

pair_style      peri/pmb
pair_coeff      * * 1.6863e22 0.0015001 0.0005 0.25
set             group all density 2200
  12855 settings made for density
set             group all volume 1.25e-10
  12855 settings made for volume
velocity        all set 0.0 0.0 0.0 sum no units box
fix             1 all nve
fix             2 all indent 1e16 sphere v_x v_y v_z v_w units box


print "Iteration:  i = $i , j = $j, k = $k, l = $l "
Iteration:  i = 1 , j = 3, k = 1, l = 1 

print " "
 
print " "
 
print "----------------------------------------------------------------"
----------------------------------------------------------------
print "Iteration ${count} of ${countmax}"
Iteration 3 of 2325
print "----------------------------------------------------------------"
----------------------------------------------------------------
print " "
 

# Reset current timestep
reset_timestep 0

# spherical indenter to shatter target

#q is velocity for indent.txt
variable         q equal "1+(0.001*v_l)"

# indenter radius (w) for indent.txt
variable         w equal "0.0020+(0.001*v_k)"

#disk radius(v_r)
variable r equal 0.037

variable        y0 equal 0.00510
variable        vy equal -100
variable        y equal "v_y0 + v_q*step*dt*v_vy"

#Hit the whole disk
#variable        x equal "cos((PI/2)*v_i/v_imax)*((v_i-1)/v_imax*v_r)"
#variable        z equal "sin((PI/2)*v_j/v_jmax)*((v_j-1)/v_jmax*v_r)"

#Hit the disk reduced 5times compare to disk size
variable        x equal "cos((2*PI)*v_j/v_jmax)*(v_i/v_imax)*v_r*(0.3)"
variable        z equal "sin((2*PI)*v_j/v_jmax)*(v_i/v_imax)*v_r*(0.3)"

compute         1 all damage/atom
timestep        1.0e-7
thermo          100

dump            ${count} all custom 1000 Data/dump_${count}.peri id type x y z c_1
dump            3 all custom 1000 Data/dump_${count}.peri id type x y z c_1
dump            3 all custom 1000 Data/dump_3.peri id type x y z c_1

run             1000
Neighbor list info ...
  2 neighbor list requests
  update every 1 steps, delay 10 steps, check yes
  max neighbors/atom: 2000, page size: 100000
  master list distance cutoff = 0.0025001
  ghost atom cutoff = 0.0025001
  binsize = 0.00125005 -> bins = 60 3 60
Peridynamic bonds:
  total # of bonds = 185180
  bonds/atom = 14.4053
Memory usage per processor = 9.32606 Mbytes
Step Temp E_pair E_mol TotEng Press Volume 
       0            0            0            0            0            0 1.095912e-05 
     100            0            0            0            0            0 1.095912e-05 
     200            0            0            0            0            0 1.095912e-05 
     300 8.3555768e+22    29473.883            0    51716.696 1.3530779e+09 1.095912e-05 
     400 9.3798203e+24    1449695.2            0    3946633.4 1.5189408e+11 1.095912e-05 
     500 1.4922099e+26    9809380.9            0     49532486 2.4164413e+12 1.095912e-05 
     600 6.3911501e+26     17826592            0 1.8796106e+08 8.0320551e+12 1.412129e-05 
     700 1.5499898e+27     10729495            0 4.2334176e+08 1.0681503e+13 2.5752448e-05 
     800 2.0669287e+27    4832243.2            0 5.5505528e+08 9.9016686e+12 3.7045813e-05 
     900 2.1178399e+27    5551854.7            0 5.6932763e+08 7.4540694e+12 5.0422192e-05 
    1000 2.1190782e+27    3703042.6            0 5.6780844e+08 5.5038779e+12 6.8328235e-05 
Loop time of 20.0992 on 1 procs for 1000 steps with 12855 atoms

97.9% CPU use with 1 MPI tasks x 1 OpenMP threads

MPI task timing breakdown:
Section |  min time  |  avg time  |  max time  |%varavg| %total
---------------------------------------------------------------
Pair    | 18.882     | 18.882     | 18.882     |   0.0 | 93.94
Neigh   | 0.22238    | 0.22238    | 0.22238    |   0.0 |  1.11
Comm    | 0.0089068  | 0.0089068  | 0.0089068  |   0.0 |  0.04
Output  | 0.034813   | 0.034813   | 0.034813   |   0.0 |  0.17
Modify  | 0.73962    | 0.73962    | 0.73962    |   0.0 |  3.68
Other   |            | 0.2117     |            |       |  1.05

Nlocal:    12855 ave 12855 max 12855 min
Histogram: 1 0 0 0 0 0 0 0 0 0
Nghost:    0 ave 0 max 0 min
Histogram: 1 0 0 0 0 0 0 0 0 0
Neighs:    333219 ave 333219 max 333219 min
Histogram: 1 0 0 0 0 0 0 0 0 0
FullNghs:  674306 ave 674306 max 674306 min
Histogram: 1 0 0 0 0 0 0 0 0 0

Total # of neighbors = 674306
Ave neighs/atom = 52.4548
Neighbor list builds = 16
Dangerous builds = 0

# SAVE INDENTER
print $x file Data/indenter_${count}.txt
print -0.000299336287918731 file Data/indenter_${count}.txt
print -0.000299336287918731 file Data/indenter_3.txt
-0.000299336287918731
print $z append Data/indenter_${count}.txt
print -0.000217480543348215 append Data/indenter_${count}.txt
print -0.000217480543348215 append Data/indenter_3.txt
-0.000217480543348215
print $w append Data/indenter_${count}.txt
print 0.003 append Data/indenter_${count}.txt
print 0.003 append Data/indenter_3.txt
0.003
print $q append Data/indenter_${count}.txt
print 1.001 append Data/indenter_${count}.txt
print 1.001 append Data/indenter_3.txt
1.001

next j
next count
jump SELF start_of_loop_4
variable j loop ${jmax}
variable j loop 5
clear
WARNING: OMP_NUM_THREADS environment is not set. (../comm.cpp:90)
  using 1 OpenMP thread(s) per MPI task

# DEFINE INITIAL CONDITIONS
# small Peridynamic cylinder hit by projectile
units		si
boundary        s s s
dimension	3
atom_style      peri
atom_modify	map array
neighbor        0.0010 bin

# small target
lattice         sc 0.001
Lattice spacing in x,y,z = 0.001 0.001 0.001
region          target cylinder y 0.0 0.0 0.037 -0.0025 0.0 units box
create_box      1 target
Created orthogonal box = (-0.037 -0.0025 -0.037) to (0.037 0 0.037)
  1 by 1 by 1 MPI processor grid
create_atoms    1 region target
Created 12855 atoms

pair_style      peri/pmb
pair_coeff      * * 1.6863e22 0.0015001 0.0005 0.25
set             group all density 2200
  12855 settings made for density
set             group all volume 1.25e-10
  12855 settings made for volume
velocity        all set 0.0 0.0 0.0 sum no units box
fix             1 all nve
fix             2 all indent 1e16 sphere v_x v_y v_z v_w units box


print "Iteration:  i = $i , j = $j, k = $k, l = $l "
Iteration:  i = 1 , j = 4, k = 1, l = 1 

print " "
 
print " "
 
print "----------------------------------------------------------------"
----------------------------------------------------------------
print "Iteration ${count} of ${countmax}"
Iteration 4 of 2325
print "----------------------------------------------------------------"
----------------------------------------------------------------
print " "
 

# Reset current timestep
reset_timestep 0

# spherical indenter to shatter target

#q is velocity for indent.txt
variable         q equal "1+(0.001*v_l)"

# indenter radius (w) for indent.txt
variable         w equal "0.0020+(0.001*v_k)"

#disk radius(v_r)
variable r equal 0.037

variable        y0 equal 0.00510
variable        vy equal -100
variable        y equal "v_y0 + v_q*step*dt*v_vy"

#Hit the whole disk
#variable        x equal "cos((PI/2)*v_i/v_imax)*((v_i-1)/v_imax*v_r)"
#variable        z equal "sin((PI/2)*v_j/v_jmax)*((v_j-1)/v_jmax*v_r)"

#Hit the disk reduced 5times compare to disk size
variable        x equal "cos((2*PI)*v_j/v_jmax)*(v_i/v_imax)*v_r*(0.3)"
variable        z equal "sin((2*PI)*v_j/v_jmax)*(v_i/v_imax)*v_r*(0.3)"

compute         1 all damage/atom
timestep        1.0e-7
thermo          100

dump            ${count} all custom 1000 Data/dump_${count}.peri id type x y z c_1
dump            4 all custom 1000 Data/dump_${count}.peri id type x y z c_1
dump            4 all custom 1000 Data/dump_4.peri id type x y z c_1

run             1000
Neighbor list info ...
  2 neighbor list requests
  update every 1 steps, delay 10 steps, check yes
  max neighbors/atom: 2000, page size: 100000
  master list distance cutoff = 0.0025001
  ghost atom cutoff = 0.0025001
  binsize = 0.00125005 -> bins = 60 3 60
Peridynamic bonds:
  total # of bonds = 185180
  bonds/atom = 14.4053
Memory usage per processor = 9.32606 Mbytes
Step Temp E_pair E_mol TotEng Press Volume 
       0            0            0            0            0            0 1.095912e-05 
     100            0            0            0            0            0 1.095912e-05 
     200            0            0            0            0            0 1.095912e-05 
     300 8.3684781e+22    29474.151            0    51751.308 1.3551671e+09 1.095912e-05 
     400 9.3834138e+24    1445297.5            0    3943192.3 1.5195227e+11 1.095912e-05 
     500 1.5026209e+26    9744000.4            0     49744249 2.4333005e+12 1.095912e-05 
     600 6.408499e+26     18276784            0 1.8887308e+08 8.0796068e+12 1.4076287e-05 
     700 1.5324924e+27    9280420.4            0 4.1723481e+08 1.1204116e+13 2.4274078e-05 
     800 2.0236077e+27    6151536.5            0 5.4484239e+08 1.0480303e+13 3.4266874e-05 
     900 2.0698628e+27    4989971.5            0 5.5599409e+08 7.4458921e+12 4.9334059e-05 
    1000 2.068999e+27    3822734.9            0 5.5459689e+08 5.8440487e+12 6.2830203e-05 
Loop time of 19.8043 on 1 procs for 1000 steps with 12855 atoms

98.8% CPU use with 1 MPI tasks x 1 OpenMP threads

MPI task timing breakdown:
Section |  min time  |  avg time  |  max time  |%varavg| %total
---------------------------------------------------------------
Pair    | 18.653     | 18.653     | 18.653     |   0.0 | 94.19
Neigh   | 0.21124    | 0.21124    | 0.21124    |   0.0 |  1.07
Comm    | 0.0051103  | 0.0051103  | 0.0051103  |   0.0 |  0.03
Output  | 0.033219   | 0.033219   | 0.033219   |   0.0 |  0.17
Modify  | 0.70435    | 0.70435    | 0.70435    |   0.0 |  3.56
Other   |            | 0.1972     |            |       |  1.00

Nlocal:    12855 ave 12855 max 12855 min
Histogram: 1 0 0 0 0 0 0 0 0 0
Nghost:    0 ave 0 max 0 min
Histogram: 1 0 0 0 0 0 0 0 0 0
Neighs:    333350 ave 333350 max 333350 min
Histogram: 1 0 0 0 0 0 0 0 0 0
FullNghs:  674306 ave 674306 max 674306 min
Histogram: 1 0 0 0 0 0 0 0 0 0

Total # of neighbors = 674306
Ave neighs/atom = 52.4548
Neighbor list builds = 16
Dangerous builds = 0

# SAVE INDENTER
print $x file Data/indenter_${count}.txt
print 0.00011433628791873 file Data/indenter_${count}.txt
print 0.00011433628791873 file Data/indenter_4.txt
0.00011433628791873
print $z append Data/indenter_${count}.txt
print -0.000351890911029207 append Data/indenter_${count}.txt
print -0.000351890911029207 append Data/indenter_4.txt
-0.000351890911029207
print $w append Data/indenter_${count}.txt
print 0.003 append Data/indenter_${count}.txt
print 0.003 append Data/indenter_4.txt
0.003
print $q append Data/indenter_${count}.txt
print 1.001 append Data/indenter_${count}.txt
print 1.001 append Data/indenter_4.txt
1.001

next j
next count
jump SELF start_of_loop_4
variable j loop ${jmax}
variable j loop 5
clear
WARNING: OMP_NUM_THREADS environment is not set. (../comm.cpp:90)
  using 1 OpenMP thread(s) per MPI task

# DEFINE INITIAL CONDITIONS
# small Peridynamic cylinder hit by projectile
units		si
boundary        s s s
dimension	3
atom_style      peri
atom_modify	map array
neighbor        0.0010 bin

# small target
lattice         sc 0.001
Lattice spacing in x,y,z = 0.001 0.001 0.001
region          target cylinder y 0.0 0.0 0.037 -0.0025 0.0 units box
create_box      1 target
Created orthogonal box = (-0.037 -0.0025 -0.037) to (0.037 0 0.037)
  1 by 1 by 1 MPI processor grid
create_atoms    1 region target
Created 12855 atoms

pair_style      peri/pmb
pair_coeff      * * 1.6863e22 0.0015001 0.0005 0.25
set             group all density 2200
  12855 settings made for density
set             group all volume 1.25e-10
  12855 settings made for volume
velocity        all set 0.0 0.0 0.0 sum no units box
fix             1 all nve
fix             2 all indent 1e16 sphere v_x v_y v_z v_w units box


print "Iteration:  i = $i , j = $j, k = $k, l = $l "
Iteration:  i = 1 , j = 5, k = 1, l = 1 

print " "
 
print " "
 
print "----------------------------------------------------------------"
----------------------------------------------------------------
print "Iteration ${count} of ${countmax}"
Iteration 5 of 2325
print "----------------------------------------------------------------"
----------------------------------------------------------------
print " "
 

# Reset current timestep
reset_timestep 0

# spherical indenter to shatter target

#q is velocity for indent.txt
variable         q equal "1+(0.001*v_l)"

# indenter radius (w) for indent.txt
variable         w equal "0.0020+(0.001*v_k)"

#disk radius(v_r)
variable r equal 0.037

variable        y0 equal 0.00510
variable        vy equal -100
variable        y equal "v_y0 + v_q*step*dt*v_vy"

#Hit the whole disk
#variable        x equal "cos((PI/2)*v_i/v_imax)*((v_i-1)/v_imax*v_r)"
#variable        z equal "sin((PI/2)*v_j/v_jmax)*((v_j-1)/v_jmax*v_r)"

#Hit the disk reduced 5times compare to disk size
variable        x equal "cos((2*PI)*v_j/v_jmax)*(v_i/v_imax)*v_r*(0.3)"
variable        z equal "sin((2*PI)*v_j/v_jmax)*(v_i/v_imax)*v_r*(0.3)"

compute         1 all damage/atom
timestep        1.0e-7
thermo          100

dump            ${count} all custom 1000 Data/dump_${count}.peri id type x y z c_1
dump            5 all custom 1000 Data/dump_${count}.peri id type x y z c_1
dump            5 all custom 1000 Data/dump_5.peri id type x y z c_1

run             1000
Neighbor list info ...
  2 neighbor list requests
  update every 1 steps, delay 10 steps, check yes
  max neighbors/atom: 2000, page size: 100000
  master list distance cutoff = 0.0025001
  ghost atom cutoff = 0.0025001
  binsize = 0.00125005 -> bins = 60 3 60
Peridynamic bonds:
  total # of bonds = 185180
  bonds/atom = 14.4053
Memory usage per processor = 9.32606 Mbytes
Step Temp E_pair E_mol TotEng Press Volume 
       0            0            0            0            0            0 1.095912e-05 
     100            0            0            0            0            0 1.095912e-05 
     200            0            0            0            0            0 1.095912e-05 
     300 8.3773458e+22    29474.611            0    51775.374 1.3566031e+09 1.095912e-05 
     400 9.3057177e+24    1437529.5            0    3914741.3 1.5069408e+11 1.095912e-05 
     500 1.501197e+26    9808729.8            0     49771074 2.4309947e+12 1.095912e-05 
     600 6.5645917e+26     15478808            0 1.9023034e+08 8.3977701e+12 1.3872852e-05 
     700 1.602981e+27    9543833.8            0 4.3626251e+08 1.144059e+13 2.4865773e-05 
     800 2.0992042e+27    5220025.7            0 5.640349e+08 9.7845613e+12  3.80746e-05 
     900 2.1464995e+27    3853082.9            0 5.7525812e+08 7.1412672e+12 5.334301e-05 
    1000 2.1443093e+27    2897686.3            0 5.7371969e+08 5.5350098e+12 6.8752904e-05 
Loop time of 19.8755 on 1 procs for 1000 steps with 12855 atoms

98.6% CPU use with 1 MPI tasks x 1 OpenMP threads

MPI task timing breakdown:
Section |  min time  |  avg time  |  max time  |%varavg| %total
---------------------------------------------------------------
Pair    | 18.707     | 18.707     | 18.707     |   0.0 | 94.12
Neigh   | 0.21012    | 0.21012    | 0.21012    |   0.0 |  1.06
Comm    | 0.0049567  | 0.0049567  | 0.0049567  |   0.0 |  0.02
Output  | 0.034476   | 0.034476   | 0.034476   |   0.0 |  0.17
Modify  | 0.71716    | 0.71716    | 0.71716    |   0.0 |  3.61
Other   |            | 0.2013     |            |       |  1.01

Nlocal:    12855 ave 12855 max 12855 min
Histogram: 1 0 0 0 0 0 0 0 0 0
Nghost:    0 ave 0 max 0 min
Histogram: 1 0 0 0 0 0 0 0 0 0
Neighs:    333367 ave 333367 max 333367 min
Histogram: 1 0 0 0 0 0 0 0 0 0
FullNghs:  674306 ave 674306 max 674306 min
Histogram: 1 0 0 0 0 0 0 0 0 0

Total # of neighbors = 674306
Ave neighs/atom = 52.4548
Neighbor list builds = 16
Dangerous builds = 0

# SAVE INDENTER
print $x file Data/indenter_${count}.txt
print 0.00037 file Data/indenter_${count}.txt
print 0.00037 file Data/indenter_5.txt
0.00037
print $z append Data/indenter_${count}.txt
print -9.06238631369041e-20 append Data/indenter_${count}.txt
print -9.06238631369041e-20 append Data/indenter_5.txt
-9.06238631369041e-20
print $w append Data/indenter_${count}.txt
print 0.003 append Data/indenter_${count}.txt
print 0.003 append Data/indenter_5.txt
0.003
print $q append Data/indenter_${count}.txt
print 1.001 append Data/indenter_${count}.txt
print 1.001 append Data/indenter_5.txt
1.001

next j
next count
jump SELF start_of_loop_4

next i
jump SELF start_of_loop_3
variable i loop ${imax}
variable i loop 30

variable jmax equal "5*v_i"

print "imax = ${imax}"
imax = 30
print "jmax = ${jmax}"
jmax = 10

# Loop 4
label start_of_loop_4
variable j loop ${jmax}
variable j loop 10
clear
WARNING: OMP_NUM_THREADS environment is not set. (../comm.cpp:90)
  using 1 OpenMP thread(s) per MPI task

# DEFINE INITIAL CONDITIONS
# small Peridynamic cylinder hit by projectile
units		si
boundary        s s s
dimension	3
atom_style      peri
atom_modify	map array
neighbor        0.0010 bin

# small target
lattice         sc 0.001
Lattice spacing in x,y,z = 0.001 0.001 0.001
region          target cylinder y 0.0 0.0 0.037 -0.0025 0.0 units box
create_box      1 target
Created orthogonal box = (-0.037 -0.0025 -0.037) to (0.037 0 0.037)
  1 by 1 by 1 MPI processor grid
create_atoms    1 region target
Created 12855 atoms

pair_style      peri/pmb
pair_coeff      * * 1.6863e22 0.0015001 0.0005 0.25
set             group all density 2200
  12855 settings made for density
set             group all volume 1.25e-10
  12855 settings made for volume
velocity        all set 0.0 0.0 0.0 sum no units box
fix             1 all nve
fix             2 all indent 1e16 sphere v_x v_y v_z v_w units box


print "Iteration:  i = $i , j = $j, k = $k, l = $l "
Iteration:  i = 2 , j = 1, k = 1, l = 1 

print " "
 
print " "
 
print "----------------------------------------------------------------"
----------------------------------------------------------------
print "Iteration ${count} of ${countmax}"
Iteration 6 of 2325
print "----------------------------------------------------------------"
----------------------------------------------------------------
print " "
 

# Reset current timestep
reset_timestep 0

# spherical indenter to shatter target

#q is velocity for indent.txt
variable         q equal "1+(0.001*v_l)"

# indenter radius (w) for indent.txt
variable         w equal "0.0020+(0.001*v_k)"

#disk radius(v_r)
variable r equal 0.037

variable        y0 equal 0.00510
variable        vy equal -100
variable        y equal "v_y0 + v_q*step*dt*v_vy"

#Hit the whole disk
#variable        x equal "cos((PI/2)*v_i/v_imax)*((v_i-1)/v_imax*v_r)"
#variable        z equal "sin((PI/2)*v_j/v_jmax)*((v_j-1)/v_jmax*v_r)"

#Hit the disk reduced 5times compare to disk size
variable        x equal "cos((2*PI)*v_j/v_jmax)*(v_i/v_imax)*v_r*(0.3)"
variable        z equal "sin((2*PI)*v_j/v_jmax)*(v_i/v_imax)*v_r*(0.3)"

compute         1 all damage/atom
timestep        1.0e-7
thermo          100

dump            ${count} all custom 1000 Data/dump_${count}.peri id type x y z c_1
dump            6 all custom 1000 Data/dump_${count}.peri id type x y z c_1
dump            6 all custom 1000 Data/dump_6.peri id type x y z c_1

run             1000
Neighbor list info ...
  2 neighbor list requests
  update every 1 steps, delay 10 steps, check yes
  max neighbors/atom: 2000, page size: 100000
  master list distance cutoff = 0.0025001
  ghost atom cutoff = 0.0025001
  binsize = 0.00125005 -> bins = 60 3 60
Peridynamic bonds:
  total # of bonds = 185180
  bonds/atom = 14.4053
Memory usage per processor = 9.32606 Mbytes
Step Temp E_pair E_mol TotEng Press Volume 
       0            0            0            0            0            0 1.095912e-05 
     100            0            0            0            0            0 1.095912e-05 
     200            0            0            0            0            0 1.095912e-05 
     300 8.2689347e+22    29556.477            0    51568.647 1.3390474e+09 1.095912e-05 
     400 9.4763244e+24    1528785.8            0    4051413.7 1.5345684e+11 1.095912e-05 
     500 1.4793746e+26    8980130.4            0     48361555 2.3956561e+12 1.095912e-05 
     600 6.1423777e+26     14888754            0 1.7840082e+08 7.7258678e+12 1.4109489e-05 
     700 1.5234206e+27    7859886.9            0 4.1339933e+08 1.225865e+13  2.20546e-05 
     800 2.0525461e+27    4539472.6            0 5.5093381e+08 9.7240588e+12 3.7459964e-05 
     900 2.111925e+27    3955923.8            0 5.6615713e+08 7.3512351e+12 5.0984739e-05 
    1000 2.1062708e+27    4037454.1            0 5.6473348e+08 5.8119331e+12 6.4315494e-05 
Loop time of 20.2612 on 1 procs for 1000 steps with 12855 atoms

96.9% CPU use with 1 MPI tasks x 1 OpenMP threads

MPI task timing breakdown:
Section |  min time  |  avg time  |  max time  |%varavg| %total
---------------------------------------------------------------
Pair    | 19.074     | 19.074     | 19.074     |   0.0 | 94.14
Neigh   | 0.19613    | 0.19613    | 0.19613    |   0.0 |  0.97
Comm    | 0.0050552  | 0.0050552  | 0.0050552  |   0.0 |  0.02
Output  | 0.036542   | 0.036542   | 0.036542   |   0.0 |  0.18
Modify  | 0.7379     | 0.7379     | 0.7379     |   0.0 |  3.64
Other   |            | 0.212      |            |       |  1.05

Nlocal:    12855 ave 12855 max 12855 min
Histogram: 1 0 0 0 0 0 0 0 0 0
Nghost:    0 ave 0 max 0 min
Histogram: 1 0 0 0 0 0 0 0 0 0
Neighs:    333544 ave 333544 max 333544 min
Histogram: 1 0 0 0 0 0 0 0 0 0
FullNghs:  674306 ave 674306 max 674306 min
Histogram: 1 0 0 0 0 0 0 0 0 0

Total # of neighbors = 674306
Ave neighs/atom = 52.4548
Neighbor list builds = 15
Dangerous builds = 0

# SAVE INDENTER
print $x file Data/indenter_${count}.txt
print 0.000598672575837461 file Data/indenter_${count}.txt
print 0.000598672575837461 file Data/indenter_6.txt
0.000598672575837461
print $z append Data/indenter_${count}.txt
print 0.00043496108669643 append Data/indenter_${count}.txt
print 0.00043496108669643 append Data/indenter_6.txt
0.00043496108669643
print $w append Data/indenter_${count}.txt
print 0.003 append Data/indenter_${count}.txt
print 0.003 append Data/indenter_6.txt
0.003
print $q append Data/indenter_${count}.txt
print 1.001 append Data/indenter_${count}.txt
print 1.001 append Data/indenter_6.txt
1.001

next j
next count
jump SELF start_of_loop_4
variable j loop ${jmax}
variable j loop 10
clear
WARNING: OMP_NUM_THREADS environment is not set. (../comm.cpp:90)
  using 1 OpenMP thread(s) per MPI task

# DEFINE INITIAL CONDITIONS
# small Peridynamic cylinder hit by projectile
units		si
boundary        s s s
dimension	3
atom_style      peri
atom_modify	map array
neighbor        0.0010 bin

# small target
lattice         sc 0.001
Lattice spacing in x,y,z = 0.001 0.001 0.001
region          target cylinder y 0.0 0.0 0.037 -0.0025 0.0 units box
create_box      1 target
Created orthogonal box = (-0.037 -0.0025 -0.037) to (0.037 0 0.037)
  1 by 1 by 1 MPI processor grid
create_atoms    1 region target
Created 12855 atoms

pair_style      peri/pmb
pair_coeff      * * 1.6863e22 0.0015001 0.0005 0.25
set             group all density 2200
  12855 settings made for density
set             group all volume 1.25e-10
  12855 settings made for volume
velocity        all set 0.0 0.0 0.0 sum no units box
fix             1 all nve
fix             2 all indent 1e16 sphere v_x v_y v_z v_w units box


print "Iteration:  i = $i , j = $j, k = $k, l = $l "
Iteration:  i = 2 , j = 2, k = 1, l = 1 

print " "
 
print " "
 
print "----------------------------------------------------------------"
----------------------------------------------------------------
print "Iteration ${count} of ${countmax}"
Iteration 7 of 2325
print "----------------------------------------------------------------"
----------------------------------------------------------------
print " "
 

# Reset current timestep
reset_timestep 0

# spherical indenter to shatter target

#q is velocity for indent.txt
variable         q equal "1+(0.001*v_l)"

# indenter radius (w) for indent.txt
variable         w equal "0.0020+(0.001*v_k)"

#disk radius(v_r)
variable r equal 0.037

variable        y0 equal 0.00510
variable        vy equal -100
variable        y equal "v_y0 + v_q*step*dt*v_vy"

#Hit the whole disk
#variable        x equal "cos((PI/2)*v_i/v_imax)*((v_i-1)/v_imax*v_r)"
#variable        z equal "sin((PI/2)*v_j/v_jmax)*((v_j-1)/v_jmax*v_r)"

#Hit the disk reduced 5times compare to disk size
variable        x equal "cos((2*PI)*v_j/v_jmax)*(v_i/v_imax)*v_r*(0.3)"
variable        z equal "sin((2*PI)*v_j/v_jmax)*(v_i/v_imax)*v_r*(0.3)"

compute         1 all damage/atom
timestep        1.0e-7
thermo          100

dump            ${count} all custom 1000 Data/dump_${count}.peri id type x y z c_1
dump            7 all custom 1000 Data/dump_${count}.peri id type x y z c_1
dump            7 all custom 1000 Data/dump_7.peri id type x y z c_1

run             1000
Neighbor list info ...
  2 neighbor list requests
  update every 1 steps, delay 10 steps, check yes
  max neighbors/atom: 2000, page size: 100000
  master list distance cutoff = 0.0025001
  ghost atom cutoff = 0.0025001
  binsize = 0.00125005 -> bins = 60 3 60
Peridynamic bonds:
  total # of bonds = 185180
  bonds/atom = 14.4053
Memory usage per processor = 9.32606 Mbytes
Step Temp E_pair E_mol TotEng Press Volume 
       0            0            0            0            0            0 1.095912e-05 
     100            0            0            0            0            0 1.095912e-05 
     200            0            0            0            0            0 1.095912e-05 
     300 8.352742e+22    29476.495            0    51711.761 1.3526189e+09 1.095912e-05 
     400 9.3708136e+24    1452111.7            0    3946652.3 1.5174823e+11 1.095912e-05 
     500 1.4935186e+26    9785630.3            0     49543574 2.4185605e+12 1.095912e-05 
     600 6.3914369e+26     17729119            0 1.8787122e+08 8.0302782e+12 1.4125048e-05 
     700 1.5515853e+27    9309111.1            0 4.2234608e+08 1.0691743e+13 2.5754264e-05 
     800 2.0681909e+27    6318151.5            0 5.5687721e+08 9.8924125e+12 3.710312e-05 
     900 2.1330159e+27    4331881.6            0 5.7214755e+08 7.4708534e+12 5.0669416e-05 
    1000 2.1314982e+27      3951651            0 5.7136331e+08 5.5448689e+12 6.8220628e-05 
Loop time of 20.0427 on 1 procs for 1000 steps with 12855 atoms

97.9% CPU use with 1 MPI tasks x 1 OpenMP threads

MPI task timing breakdown:
Section |  min time  |  avg time  |  max time  |%varavg| %total
---------------------------------------------------------------
Pair    | 18.871     | 18.871     | 18.871     |   0.0 | 94.16
Neigh   | 0.20861    | 0.20861    | 0.20861    |   0.0 |  1.04
Comm    | 0.0085983  | 0.0085983  | 0.0085983  |   0.0 |  0.04
Output  | 0.034341   | 0.034341   | 0.034341   |   0.0 |  0.17
Modify  | 0.71249    | 0.71249    | 0.71249    |   0.0 |  3.55
Other   |            | 0.2071     |            |       |  1.03

Nlocal:    12855 ave 12855 max 12855 min
Histogram: 1 0 0 0 0 0 0 0 0 0
Nghost:    0 ave 0 max 0 min
Histogram: 1 0 0 0 0 0 0 0 0 0
Neighs:    333253 ave 333253 max 333253 min
Histogram: 1 0 0 0 0 0 0 0 0 0
FullNghs:  674306 ave 674306 max 674306 min
Histogram: 1 0 0 0 0 0 0 0 0 0

Total # of neighbors = 674306
Ave neighs/atom = 52.4548
Neighbor list builds = 16
Dangerous builds = 0

# SAVE INDENTER
print $x file Data/indenter_${count}.txt
print 0.000228672575837461 file Data/indenter_${count}.txt
print 0.000228672575837461 file Data/indenter_7.txt
0.000228672575837461
print $z append Data/indenter_${count}.txt
print 0.000703781822058414 append Data/indenter_${count}.txt
print 0.000703781822058414 append Data/indenter_7.txt
0.000703781822058414
print $w append Data/indenter_${count}.txt
print 0.003 append Data/indenter_${count}.txt
print 0.003 append Data/indenter_7.txt
0.003
print $q append Data/indenter_${count}.txt
print 1.001 append Data/indenter_${count}.txt
print 1.001 append Data/indenter_7.txt
1.001

next j
next count
jump SELF start_of_loop_4
variable j loop ${jmax}
variable j loop 10
clear
WARNING: OMP_NUM_THREADS environment is not set. (../comm.cpp:90)
  using 1 OpenMP thread(s) per MPI task

# DEFINE INITIAL CONDITIONS
# small Peridynamic cylinder hit by projectile
units		si
boundary        s s s
dimension	3
atom_style      peri
atom_modify	map array
neighbor        0.0010 bin

# small target
lattice         sc 0.001
Lattice spacing in x,y,z = 0.001 0.001 0.001
region          target cylinder y 0.0 0.0 0.037 -0.0025 0.0 units box
create_box      1 target
Created orthogonal box = (-0.037 -0.0025 -0.037) to (0.037 0 0.037)
  1 by 1 by 1 MPI processor grid
create_atoms    1 region target
Created 12855 atoms

pair_style      peri/pmb
pair_coeff      * * 1.6863e22 0.0015001 0.0005 0.25
set             group all density 2200
  12855 settings made for density
set             group all volume 1.25e-10
  12855 settings made for volume
velocity        all set 0.0 0.0 0.0 sum no units box
fix             1 all nve
fix             2 all indent 1e16 sphere v_x v_y v_z v_w units box


print "Iteration:  i = $i , j = $j, k = $k, l = $l "
Iteration:  i = 2 , j = 3, k = 1, l = 1 

print " "
 
print " "
 
print "----------------------------------------------------------------"
----------------------------------------------------------------
print "Iteration ${count} of ${countmax}"
Iteration 8 of 2325
print "----------------------------------------------------------------"
----------------------------------------------------------------
print " "
 

# Reset current timestep
reset_timestep 0

# spherical indenter to shatter target

#q is velocity for indent.txt
variable         q equal "1+(0.001*v_l)"

# indenter radius (w) for indent.txt
variable         w equal "0.0020+(0.001*v_k)"

#disk radius(v_r)
variable r equal 0.037

variable        y0 equal 0.00510
variable        vy equal -100
variable        y equal "v_y0 + v_q*step*dt*v_vy"

#Hit the whole disk
#variable        x equal "cos((PI/2)*v_i/v_imax)*((v_i-1)/v_imax*v_r)"
#variable        z equal "sin((PI/2)*v_j/v_jmax)*((v_j-1)/v_jmax*v_r)"

#Hit the disk reduced 5times compare to disk size
variable        x equal "cos((2*PI)*v_j/v_jmax)*(v_i/v_imax)*v_r*(0.3)"
variable        z equal "sin((2*PI)*v_j/v_jmax)*(v_i/v_imax)*v_r*(0.3)"

compute         1 all damage/atom
timestep        1.0e-7
thermo          100

dump            ${count} all custom 1000 Data/dump_${count}.peri id type x y z c_1
dump            8 all custom 1000 Data/dump_${count}.peri id type x y z c_1
dump            8 all custom 1000 Data/dump_8.peri id type x y z c_1

run             1000
Neighbor list info ...
  2 neighbor list requests
  update every 1 steps, delay 10 steps, check yes
  max neighbors/atom: 2000, page size: 100000
  master list distance cutoff = 0.0025001
  ghost atom cutoff = 0.0025001
  binsize = 0.00125005 -> bins = 60 3 60
Peridynamic bonds:
  total # of bonds = 185180
  bonds/atom = 14.4053
Memory usage per processor = 9.32606 Mbytes
Step Temp E_pair E_mol TotEng Press Volume 
       0            0            0            0            0            0 1.095912e-05 
     100            0            0            0            0            0 1.095912e-05 
     200            0            0            0            0            0 1.095912e-05 
     300 8.352742e+22    29476.495            0    51711.761 1.3526189e+09 1.095912e-05 
     400 9.3708136e+24    1452111.7            0    3946652.3 1.5174823e+11 1.095912e-05 
     500 1.4935186e+26    9785630.3            0     49543574 2.4185605e+12 1.095912e-05 
     600 6.3914369e+26     17729119            0 1.8787122e+08 8.0302782e+12 1.4125048e-05 
     700 1.5515853e+27    9309111.1            0 4.2234608e+08 1.0691743e+13 2.5754264e-05 
     800 2.0681909e+27    6318151.5            0 5.5687721e+08 9.8924125e+12 3.710312e-05 
     900 2.1330159e+27    4331881.6            0 5.7214755e+08 7.4708534e+12 5.0669416e-05 
    1000 2.1314982e+27      3951651            0 5.7136331e+08 5.5448689e+12 6.8220628e-05 
Loop time of 19.9753 on 1 procs for 1000 steps with 12855 atoms

98.0% CPU use with 1 MPI tasks x 1 OpenMP threads

MPI task timing breakdown:
Section |  min time  |  avg time  |  max time  |%varavg| %total
---------------------------------------------------------------
Pair    | 18.813     | 18.813     | 18.813     |   0.0 | 94.18
Neigh   | 0.21054    | 0.21054    | 0.21054    |   0.0 |  1.05
Comm    | 0.0087361  | 0.0087361  | 0.0087361  |   0.0 |  0.04
Output  | 0.036686   | 0.036686   | 0.036686   |   0.0 |  0.18
Modify  | 0.70752    | 0.70752    | 0.70752    |   0.0 |  3.54
Other   |            | 0.1983     |            |       |  0.99

Nlocal:    12855 ave 12855 max 12855 min
Histogram: 1 0 0 0 0 0 0 0 0 0
Nghost:    0 ave 0 max 0 min
Histogram: 1 0 0 0 0 0 0 0 0 0
Neighs:    333253 ave 333253 max 333253 min
Histogram: 1 0 0 0 0 0 0 0 0 0
FullNghs:  674306 ave 674306 max 674306 min
Histogram: 1 0 0 0 0 0 0 0 0 0

Total # of neighbors = 674306
Ave neighs/atom = 52.4548
Neighbor list builds = 16
Dangerous builds = 0

# SAVE INDENTER
print $x file Data/indenter_${count}.txt
print -0.000228672575837461 file Data/indenter_${count}.txt
print -0.000228672575837461 file Data/indenter_8.txt
-0.000228672575837461
print $z append Data/indenter_${count}.txt
print 0.000703781822058414 append Data/indenter_${count}.txt
print 0.000703781822058414 append Data/indenter_8.txt
0.000703781822058414
print $w append Data/indenter_${count}.txt
print 0.003 append Data/indenter_${count}.txt
print 0.003 append Data/indenter_8.txt
0.003
print $q append Data/indenter_${count}.txt
print 1.001 append Data/indenter_${count}.txt
print 1.001 append Data/indenter_8.txt
1.001

next j
next count
jump SELF start_of_loop_4
variable j loop ${jmax}
variable j loop 10
clear
WARNING: OMP_NUM_THREADS environment is not set. (../comm.cpp:90)
  using 1 OpenMP thread(s) per MPI task

# DEFINE INITIAL CONDITIONS
# small Peridynamic cylinder hit by projectile
units		si
boundary        s s s
dimension	3
atom_style      peri
atom_modify	map array
neighbor        0.0010 bin

# small target
lattice         sc 0.001
Lattice spacing in x,y,z = 0.001 0.001 0.001
region          target cylinder y 0.0 0.0 0.037 -0.0025 0.0 units box
create_box      1 target
Created orthogonal box = (-0.037 -0.0025 -0.037) to (0.037 0 0.037)
  1 by 1 by 1 MPI processor grid
create_atoms    1 region target
Created 12855 atoms

pair_style      peri/pmb
pair_coeff      * * 1.6863e22 0.0015001 0.0005 0.25
set             group all density 2200
  12855 settings made for density
set             group all volume 1.25e-10
  12855 settings made for volume
velocity        all set 0.0 0.0 0.0 sum no units box
fix             1 all nve
fix             2 all indent 1e16 sphere v_x v_y v_z v_w units box


print "Iteration:  i = $i , j = $j, k = $k, l = $l "
Iteration:  i = 2 , j = 4, k = 1, l = 1 

print " "
 
print " "
 
print "----------------------------------------------------------------"
----------------------------------------------------------------
print "Iteration ${count} of ${countmax}"
Iteration 9 of 2325
print "----------------------------------------------------------------"
----------------------------------------------------------------
print " "
 

# Reset current timestep
reset_timestep 0

# spherical indenter to shatter target

#q is velocity for indent.txt
variable         q equal "1+(0.001*v_l)"

# indenter radius (w) for indent.txt
variable         w equal "0.0020+(0.001*v_k)"

#disk radius(v_r)
variable r equal 0.037

variable        y0 equal 0.00510
variable        vy equal -100
variable        y equal "v_y0 + v_q*step*dt*v_vy"

#Hit the whole disk
#variable        x equal "cos((PI/2)*v_i/v_imax)*((v_i-1)/v_imax*v_r)"
#variable        z equal "sin((PI/2)*v_j/v_jmax)*((v_j-1)/v_jmax*v_r)"

#Hit the disk reduced 5times compare to disk size
variable        x equal "cos((2*PI)*v_j/v_jmax)*(v_i/v_imax)*v_r*(0.3)"
variable        z equal "sin((2*PI)*v_j/v_jmax)*(v_i/v_imax)*v_r*(0.3)"

compute         1 all damage/atom
timestep        1.0e-7
thermo          100

dump            ${count} all custom 1000 Data/dump_${count}.peri id type x y z c_1
dump            9 all custom 1000 Data/dump_${count}.peri id type x y z c_1
dump            9 all custom 1000 Data/dump_9.peri id type x y z c_1

run             1000
Neighbor list info ...
  2 neighbor list requests
  update every 1 steps, delay 10 steps, check yes
  max neighbors/atom: 2000, page size: 100000
  master list distance cutoff = 0.0025001
  ghost atom cutoff = 0.0025001
  binsize = 0.00125005 -> bins = 60 3 60
Peridynamic bonds:
  total # of bonds = 185180
  bonds/atom = 14.4053
Memory usage per processor = 9.32606 Mbytes
Step Temp E_pair E_mol TotEng Press Volume 
       0            0            0            0            0            0 1.095912e-05 
     100            0            0            0            0            0 1.095912e-05 
     200            0            0            0            0            0 1.095912e-05 
     300 8.2689347e+22    29556.477            0    51568.647 1.3390474e+09 1.095912e-05 
     400 9.4763244e+24    1528785.8            0    4051413.7 1.5345684e+11 1.095912e-05 
     500 1.4793746e+26    8980130.4            0     48361555 2.3956561e+12 1.095912e-05 
     600 6.1423777e+26     14888754            0 1.7840082e+08 7.7258678e+12 1.4109489e-05 
     700 1.5234206e+27    7859886.9            0 4.1339933e+08 1.225865e+13  2.20546e-05 
     800 2.0525461e+27    4539472.6            0 5.5093381e+08 9.7240588e+12 3.7459964e-05 
     900 2.111925e+27    3955923.8            0 5.6615713e+08 7.3512351e+12 5.0984739e-05 
    1000 2.1062708e+27    4037454.1            0 5.6473348e+08 5.8119331e+12 6.4315494e-05 
Loop time of 20.4164 on 1 procs for 1000 steps with 12855 atoms

96.4% CPU use with 1 MPI tasks x 1 OpenMP threads

MPI task timing breakdown:
Section |  min time  |  avg time  |  max time  |%varavg| %total
---------------------------------------------------------------
Pair    | 19.219     | 19.219     | 19.219     |   0.0 | 94.14
Neigh   | 0.2029     | 0.2029     | 0.2029     |   0.0 |  0.99
Comm    | 0.0056169  | 0.0056169  | 0.0056169  |   0.0 |  0.03
Output  | 0.037362   | 0.037362   | 0.037362   |   0.0 |  0.18
Modify  | 0.7378     | 0.7378     | 0.7378     |   0.0 |  3.61
Other   |            | 0.2136     |            |       |  1.05

Nlocal:    12855 ave 12855 max 12855 min
Histogram: 1 0 0 0 0 0 0 0 0 0
Nghost:    0 ave 0 max 0 min
Histogram: 1 0 0 0 0 0 0 0 0 0
Neighs:    333544 ave 333544 max 333544 min
Histogram: 1 0 0 0 0 0 0 0 0 0
FullNghs:  674306 ave 674306 max 674306 min
Histogram: 1 0 0 0 0 0 0 0 0 0

Total # of neighbors = 674306
Ave neighs/atom = 52.4548
Neighbor list builds = 15
Dangerous builds = 0

# SAVE INDENTER
print $x file Data/indenter_${count}.txt
print -0.000598672575837461 file Data/indenter_${count}.txt
print -0.000598672575837461 file Data/indenter_9.txt
-0.000598672575837461
print $z append Data/indenter_${count}.txt
print 0.00043496108669643 append Data/indenter_${count}.txt
print 0.00043496108669643 append Data/indenter_9.txt
0.00043496108669643
print $w append Data/indenter_${count}.txt
print 0.003 append Data/indenter_${count}.txt
print 0.003 append Data/indenter_9.txt
0.003
print $q append Data/indenter_${count}.txt
print 1.001 append Data/indenter_${count}.txt
print 1.001 append Data/indenter_9.txt
1.001

next j
next count
jump SELF start_of_loop_4
variable j loop ${jmax}
variable j loop 10
clear
WARNING: OMP_NUM_THREADS environment is not set. (../comm.cpp:90)
  using 1 OpenMP thread(s) per MPI task

# DEFINE INITIAL CONDITIONS
# small Peridynamic cylinder hit by projectile
units		si
boundary        s s s
dimension	3
atom_style      peri
atom_modify	map array
neighbor        0.0010 bin

# small target
lattice         sc 0.001
Lattice spacing in x,y,z = 0.001 0.001 0.001
region          target cylinder y 0.0 0.0 0.037 -0.0025 0.0 units box
create_box      1 target
Created orthogonal box = (-0.037 -0.0025 -0.037) to (0.037 0 0.037)
  1 by 1 by 1 MPI processor grid
create_atoms    1 region target
Created 12855 atoms

pair_style      peri/pmb
pair_coeff      * * 1.6863e22 0.0015001 0.0005 0.25
set             group all density 2200
  12855 settings made for density
set             group all volume 1.25e-10
  12855 settings made for volume
velocity        all set 0.0 0.0 0.0 sum no units box
fix             1 all nve
fix             2 all indent 1e16 sphere v_x v_y v_z v_w units box


print "Iteration:  i = $i , j = $j, k = $k, l = $l "
Iteration:  i = 2 , j = 5, k = 1, l = 1 

print " "
 
print " "
 
print "----------------------------------------------------------------"
----------------------------------------------------------------
print "Iteration ${count} of ${countmax}"
Iteration 10 of 2325
print "----------------------------------------------------------------"
----------------------------------------------------------------
print " "
 

# Reset current timestep
reset_timestep 0

# spherical indenter to shatter target

#q is velocity for indent.txt
variable         q equal "1+(0.001*v_l)"

# indenter radius (w) for indent.txt
variable         w equal "0.0020+(0.001*v_k)"

#disk radius(v_r)
variable r equal 0.037

variable        y0 equal 0.00510
variable        vy equal -100
variable        y equal "v_y0 + v_q*step*dt*v_vy"

#Hit the whole disk
#variable        x equal "cos((PI/2)*v_i/v_imax)*((v_i-1)/v_imax*v_r)"
#variable        z equal "sin((PI/2)*v_j/v_jmax)*((v_j-1)/v_jmax*v_r)"

#Hit the disk reduced 5times compare to disk size
variable        x equal "cos((2*PI)*v_j/v_jmax)*(v_i/v_imax)*v_r*(0.3)"
variable        z equal "sin((2*PI)*v_j/v_jmax)*(v_i/v_imax)*v_r*(0.3)"

compute         1 all damage/atom
timestep        1.0e-7
thermo          100

dump            ${count} all custom 1000 Data/dump_${count}.peri id type x y z c_1
dump            10 all custom 1000 Data/dump_${count}.peri id type x y z c_1
dump            10 all custom 1000 Data/dump_10.peri id type x y z c_1

run             1000
Neighbor list info ...
  2 neighbor list requests
  update every 1 steps, delay 10 steps, check yes
  max neighbors/atom: 2000, page size: 100000
  master list distance cutoff = 0.0025001
  ghost atom cutoff = 0.0025001
  binsize = 0.00125005 -> bins = 60 3 60
Peridynamic bonds:
  total # of bonds = 185180
  bonds/atom = 14.4053
Memory usage per processor = 9.32606 Mbytes
Step Temp E_pair E_mol TotEng Press Volume 
       0            0            0            0            0            0 1.095912e-05 
     100            0            0            0            0            0 1.095912e-05 
     200            0            0            0            0            0 1.095912e-05 
     300 8.4206623e+22    29399.336            0    51815.409 1.3636177e+09 1.095912e-05 
     400 9.4115552e+24    1400403.1            0    3905789.2 1.5240799e+11 1.095912e-05 
     500 1.536102e+26    9909184.1            0     50800712 2.4875189e+12 1.095912e-05 
     600 6.8729144e+26     15723802            0 1.9868299e+08 8.7011659e+12 1.4017982e-05 
     700 1.5872403e+27    8016988.8            0 4.3054544e+08 1.1254266e+13 2.5029232e-05 
     800 2.0645633e+27    5297273.2            0 5.5489063e+08 8.6801085e+12 4.2210944e-05 
     900 2.1052358e+27    5565195.4            0 5.6598571e+08 6.2972211e+12 5.9329928e-05 
    1000 2.109248e+27      2992024            0 5.6448061e+08 4.8994677e+12 7.6401304e-05 
Loop time of 20.011 on 1 procs for 1000 steps with 12855 atoms

97.6% CPU use with 1 MPI tasks x 1 OpenMP threads

MPI task timing breakdown:
Section |  min time  |  avg time  |  max time  |%varavg| %total
---------------------------------------------------------------
Pair    | 18.856     | 18.856     | 18.856     |   0.0 | 94.23
Neigh   | 0.20717    | 0.20717    | 0.20717    |   0.0 |  1.04
Comm    | 0.0050867  | 0.0050867  | 0.0050867  |   0.0 |  0.03
Output  | 0.039353   | 0.039353   | 0.039353   |   0.0 |  0.20
Modify  | 0.70656    | 0.70656    | 0.70656    |   0.0 |  3.53
Other   |            | 0.1965     |            |       |  0.98

Nlocal:    12855 ave 12855 max 12855 min
Histogram: 1 0 0 0 0 0 0 0 0 0
Nghost:    0 ave 0 max 0 min
Histogram: 1 0 0 0 0 0 0 0 0 0
Neighs:    333500 ave 333500 max 333500 min
Histogram: 1 0 0 0 0 0 0 0 0 0
FullNghs:  674306 ave 674306 max 674306 min
Histogram: 1 0 0 0 0 0 0 0 0 0

Total # of neighbors = 674306
Ave neighs/atom = 52.4548
Neighbor list builds = 16
Dangerous builds = 0

# SAVE INDENTER
print $x file Data/indenter_${count}.txt
print -0.00074 file Data/indenter_${count}.txt
print -0.00074 file Data/indenter_10.txt
-0.00074
print $z append Data/indenter_${count}.txt
print 9.06238631369041e-20 append Data/indenter_${count}.txt
print 9.06238631369041e-20 append Data/indenter_10.txt
9.06238631369041e-20
print $w append Data/indenter_${count}.txt
print 0.003 append Data/indenter_${count}.txt
print 0.003 append Data/indenter_10.txt
0.003
print $q append Data/indenter_${count}.txt
print 1.001 append Data/indenter_${count}.txt
print 1.001 append Data/indenter_10.txt
1.001

next j
next count
jump SELF start_of_loop_4
variable j loop ${jmax}
variable j loop 10
clear
WARNING: OMP_NUM_THREADS environment is not set. (../comm.cpp:90)
  using 1 OpenMP thread(s) per MPI task

# DEFINE INITIAL CONDITIONS
# small Peridynamic cylinder hit by projectile
units		si
boundary        s s s
dimension	3
atom_style      peri
atom_modify	map array
neighbor        0.0010 bin

# small target
lattice         sc 0.001
Lattice spacing in x,y,z = 0.001 0.001 0.001
region          target cylinder y 0.0 0.0 0.037 -0.0025 0.0 units box
create_box      1 target
Created orthogonal box = (-0.037 -0.0025 -0.037) to (0.037 0 0.037)
  1 by 1 by 1 MPI processor grid
create_atoms    1 region target
Created 12855 atoms

pair_style      peri/pmb
pair_coeff      * * 1.6863e22 0.0015001 0.0005 0.25
set             group all density 2200
  12855 settings made for density
set             group all volume 1.25e-10
  12855 settings made for volume
velocity        all set 0.0 0.0 0.0 sum no units box
fix             1 all nve
fix             2 all indent 1e16 sphere v_x v_y v_z v_w units box


print "Iteration:  i = $i , j = $j, k = $k, l = $l "
Iteration:  i = 2 , j = 6, k = 1, l = 1 

print " "
 
print " "
 
print "----------------------------------------------------------------"
----------------------------------------------------------------
print "Iteration ${count} of ${countmax}"
Iteration 11 of 2325
print "----------------------------------------------------------------"
----------------------------------------------------------------
print " "
 

# Reset current timestep
reset_timestep 0

# spherical indenter to shatter target

#q is velocity for indent.txt
variable         q equal "1+(0.001*v_l)"

# indenter radius (w) for indent.txt
variable         w equal "0.0020+(0.001*v_k)"

#disk radius(v_r)
variable r equal 0.037

variable        y0 equal 0.00510
variable        vy equal -100
variable        y equal "v_y0 + v_q*step*dt*v_vy"

#Hit the whole disk
#variable        x equal "cos((PI/2)*v_i/v_imax)*((v_i-1)/v_imax*v_r)"
#variable        z equal "sin((PI/2)*v_j/v_jmax)*((v_j-1)/v_jmax*v_r)"

#Hit the disk reduced 5times compare to disk size
variable        x equal "cos((2*PI)*v_j/v_jmax)*(v_i/v_imax)*v_r*(0.3)"
variable        z equal "sin((2*PI)*v_j/v_jmax)*(v_i/v_imax)*v_r*(0.3)"

compute         1 all damage/atom
timestep        1.0e-7
thermo          100

dump            ${count} all custom 1000 Data/dump_${count}.peri id type x y z c_1
dump            11 all custom 1000 Data/dump_${count}.peri id type x y z c_1
dump            11 all custom 1000 Data/dump_11.peri id type x y z c_1

run             1000
Neighbor list info ...
  2 neighbor list requests
  update every 1 steps, delay 10 steps, check yes
  max neighbors/atom: 2000, page size: 100000
  master list distance cutoff = 0.0025001
  ghost atom cutoff = 0.0025001
  binsize = 0.00125005 -> bins = 60 3 60
Peridynamic bonds:
  total # of bonds = 185180
  bonds/atom = 14.4053
Memory usage per processor = 9.32606 Mbytes
Step Temp E_pair E_mol TotEng Press Volume 
       0            0            0            0            0            0 1.095912e-05 
     100            0            0            0            0            0 1.095912e-05 
     200            0            0            0            0            0 1.095912e-05 
     300 8.2689347e+22    29556.477            0    51568.647 1.3390474e+09 1.095912e-05 
     400 9.4763244e+24    1528785.8            0    4051413.7 1.5345684e+11 1.095912e-05 
     500 1.4793746e+26    8980130.4            0     48361555 2.3956561e+12 1.095912e-05 
     600 6.1423777e+26     14888754            0 1.7840082e+08 7.7258678e+12 1.4109489e-05 
     700 1.5234206e+27    7859886.9            0 4.1339933e+08 1.225865e+13  2.20546e-05 
     800 2.0525461e+27    4539472.6            0 5.5093381e+08 9.7240588e+12 3.7459964e-05 
     900 2.111925e+27    3955923.8            0 5.6615713e+08 7.3512351e+12 5.0984739e-05 
    1000 2.1062708e+27    4037454.1            0 5.6473348e+08 5.8119331e+12 6.4315494e-05 
Loop time of 19.7507 on 1 procs for 1000 steps with 12855 atoms

98.9% CPU use with 1 MPI tasks x 1 OpenMP threads

MPI task timing breakdown:
Section |  min time  |  avg time  |  max time  |%varavg| %total
---------------------------------------------------------------
Pair    | 18.637     | 18.637     | 18.637     |   0.0 | 94.36
Neigh   | 0.19639    | 0.19639    | 0.19639    |   0.0 |  0.99
Comm    | 0.0045595  | 0.0045595  | 0.0045595  |   0.0 |  0.02
Output  | 0.03376    | 0.03376    | 0.03376    |   0.0 |  0.17
Modify  | 0.6879     | 0.6879     | 0.6879     |   0.0 |  3.48
Other   |            | 0.1913     |            |       |  0.97

Nlocal:    12855 ave 12855 max 12855 min
Histogram: 1 0 0 0 0 0 0 0 0 0
Nghost:    0 ave 0 max 0 min
Histogram: 1 0 0 0 0 0 0 0 0 0
Neighs:    333544 ave 333544 max 333544 min
Histogram: 1 0 0 0 0 0 0 0 0 0
FullNghs:  674306 ave 674306 max 674306 min
Histogram: 1 0 0 0 0 0 0 0 0 0

Total # of neighbors = 674306
Ave neighs/atom = 52.4548
Neighbor list builds = 15
Dangerous builds = 0

# SAVE INDENTER
print $x file Data/indenter_${count}.txt
print -0.000598672575837461 file Data/indenter_${count}.txt
print -0.000598672575837461 file Data/indenter_11.txt
-0.000598672575837461
print $z append Data/indenter_${count}.txt
print -0.00043496108669643 append Data/indenter_${count}.txt
print -0.00043496108669643 append Data/indenter_11.txt
-0.00043496108669643
print $w append Data/indenter_${count}.txt
print 0.003 append Data/indenter_${count}.txt
print 0.003 append Data/indenter_11.txt
0.003
print $q append Data/indenter_${count}.txt
print 1.001 append Data/indenter_${count}.txt
print 1.001 append Data/indenter_11.txt
1.001

next j
next count
jump SELF start_of_loop_4
variable j loop ${jmax}
variable j loop 10
clear
WARNING: OMP_NUM_THREADS environment is not set. (../comm.cpp:90)
  using 1 OpenMP thread(s) per MPI task

# DEFINE INITIAL CONDITIONS
# small Peridynamic cylinder hit by projectile
units		si
boundary        s s s
dimension	3
atom_style      peri
atom_modify	map array
neighbor        0.0010 bin

# small target
lattice         sc 0.001
Lattice spacing in x,y,z = 0.001 0.001 0.001
region          target cylinder y 0.0 0.0 0.037 -0.0025 0.0 units box
create_box      1 target
Created orthogonal box = (-0.037 -0.0025 -0.037) to (0.037 0 0.037)
  1 by 1 by 1 MPI processor grid
create_atoms    1 region target
Created 12855 atoms

pair_style      peri/pmb
pair_coeff      * * 1.6863e22 0.0015001 0.0005 0.25
set             group all density 2200
  12855 settings made for density
set             group all volume 1.25e-10
  12855 settings made for volume
velocity        all set 0.0 0.0 0.0 sum no units box
fix             1 all nve
fix             2 all indent 1e16 sphere v_x v_y v_z v_w units box


print "Iteration:  i = $i , j = $j, k = $k, l = $l "
Iteration:  i = 2 , j = 7, k = 1, l = 1 

print " "
 
print " "
 
print "----------------------------------------------------------------"
----------------------------------------------------------------
print "Iteration ${count} of ${countmax}"
Iteration 12 of 2325
print "----------------------------------------------------------------"
----------------------------------------------------------------
print " "
 

# Reset current timestep
reset_timestep 0

# spherical indenter to shatter target

#q is velocity for indent.txt
variable         q equal "1+(0.001*v_l)"

# indenter radius (w) for indent.txt
variable         w equal "0.0020+(0.001*v_k)"

#disk radius(v_r)
variable r equal 0.037

variable        y0 equal 0.00510
variable        vy equal -100
variable        y equal "v_y0 + v_q*step*dt*v_vy"

#Hit the whole disk
#variable        x equal "cos((PI/2)*v_i/v_imax)*((v_i-1)/v_imax*v_r)"
#variable        z equal "sin((PI/2)*v_j/v_jmax)*((v_j-1)/v_jmax*v_r)"

#Hit the disk reduced 5times compare to disk size
variable        x equal "cos((2*PI)*v_j/v_jmax)*(v_i/v_imax)*v_r*(0.3)"
variable        z equal "sin((2*PI)*v_j/v_jmax)*(v_i/v_imax)*v_r*(0.3)"

compute         1 all damage/atom
timestep        1.0e-7
thermo          100

dump            ${count} all custom 1000 Data/dump_${count}.peri id type x y z c_1
dump            12 all custom 1000 Data/dump_${count}.peri id type x y z c_1
dump            12 all custom 1000 Data/dump_12.peri id type x y z c_1

run             1000
Neighbor list info ...
  2 neighbor list requests
  update every 1 steps, delay 10 steps, check yes
  max neighbors/atom: 2000, page size: 100000
  master list distance cutoff = 0.0025001
  ghost atom cutoff = 0.0025001
  binsize = 0.00125005 -> bins = 60 3 60
Peridynamic bonds:
  total # of bonds = 185180
  bonds/atom = 14.4053
Memory usage per processor = 9.32606 Mbytes
Step Temp E_pair E_mol TotEng Press Volume 
       0            0            0            0            0            0 1.095912e-05 
     100            0            0            0            0            0 1.095912e-05 
     200            0            0            0            0            0 1.095912e-05 
     300 8.352742e+22    29476.495            0    51711.761 1.3526189e+09 1.095912e-05 
     400 9.3708136e+24    1452111.7            0    3946652.3 1.5174823e+11 1.095912e-05 
     500 1.4935186e+26    9785630.3            0     49543574 2.4185605e+12 1.095912e-05 
     600 6.3914369e+26     17729119            0 1.8787122e+08 8.0302782e+12 1.4125048e-05 
     700 1.5515853e+27    9309111.1            0 4.2234608e+08 1.0691743e+13 2.5754264e-05 
     800 2.0681909e+27    6318151.5            0 5.5687721e+08 9.8924125e+12 3.710312e-05 
     900 2.1330159e+27    4331881.6            0 5.7214755e+08 7.4708534e+12 5.0669416e-05 
    1000 2.1314982e+27      3951651            0 5.7136331e+08 5.5448689e+12 6.8220628e-05 
Loop time of 19.9753 on 1 procs for 1000 steps with 12855 atoms

97.9% CPU use with 1 MPI tasks x 1 OpenMP threads

MPI task timing breakdown:
Section |  min time  |  avg time  |  max time  |%varavg| %total
---------------------------------------------------------------
Pair    | 18.809     | 18.809     | 18.809     |   0.0 | 94.16
Neigh   | 0.22068    | 0.22068    | 0.22068    |   0.0 |  1.10
Comm    | 0.0087218  | 0.0087218  | 0.0087218  |   0.0 |  0.04
Output  | 0.034104   | 0.034104   | 0.034104   |   0.0 |  0.17
Modify  | 0.71202    | 0.71202    | 0.71202    |   0.0 |  3.56
Other   |            | 0.1909     |            |       |  0.96

Nlocal:    12855 ave 12855 max 12855 min
Histogram: 1 0 0 0 0 0 0 0 0 0
Nghost:    0 ave 0 max 0 min
Histogram: 1 0 0 0 0 0 0 0 0 0
Neighs:    333253 ave 333253 max 333253 min
Histogram: 1 0 0 0 0 0 0 0 0 0
FullNghs:  674306 ave 674306 max 674306 min
Histogram: 1 0 0 0 0 0 0 0 0 0

Total # of neighbors = 674306
Ave neighs/atom = 52.4548
Neighbor list builds = 16
Dangerous builds = 0

# SAVE INDENTER
print $x file Data/indenter_${count}.txt
print -0.000228672575837461 file Data/indenter_${count}.txt
print -0.000228672575837461 file Data/indenter_12.txt
-0.000228672575837461
print $z append Data/indenter_${count}.txt
print -0.000703781822058414 append Data/indenter_${count}.txt
print -0.000703781822058414 append Data/indenter_12.txt
-0.000703781822058414
print $w append Data/indenter_${count}.txt
print 0.003 append Data/indenter_${count}.txt
print 0.003 append Data/indenter_12.txt
0.003
print $q append Data/indenter_${count}.txt
print 1.001 append Data/indenter_${count}.txt
print 1.001 append Data/indenter_12.txt
1.001

next j
next count
jump SELF start_of_loop_4
variable j loop ${jmax}
variable j loop 10
clear
WARNING: OMP_NUM_THREADS environment is not set. (../comm.cpp:90)
  using 1 OpenMP thread(s) per MPI task

# DEFINE INITIAL CONDITIONS
# small Peridynamic cylinder hit by projectile
units		si
boundary        s s s
dimension	3
atom_style      peri
atom_modify	map array
neighbor        0.0010 bin

# small target
lattice         sc 0.001
Lattice spacing in x,y,z = 0.001 0.001 0.001
region          target cylinder y 0.0 0.0 0.037 -0.0025 0.0 units box
create_box      1 target
Created orthogonal box = (-0.037 -0.0025 -0.037) to (0.037 0 0.037)
  1 by 1 by 1 MPI processor grid
create_atoms    1 region target
Created 12855 atoms

pair_style      peri/pmb
pair_coeff      * * 1.6863e22 0.0015001 0.0005 0.25
set             group all density 2200
  12855 settings made for density
set             group all volume 1.25e-10
  12855 settings made for volume
velocity        all set 0.0 0.0 0.0 sum no units box
fix             1 all nve
fix             2 all indent 1e16 sphere v_x v_y v_z v_w units box


print "Iteration:  i = $i , j = $j, k = $k, l = $l "
Iteration:  i = 2 , j = 8, k = 1, l = 1 

print " "
 
print " "
 
print "----------------------------------------------------------------"
----------------------------------------------------------------
print "Iteration ${count} of ${countmax}"
Iteration 13 of 2325
print "----------------------------------------------------------------"
----------------------------------------------------------------
print " "
 

# Reset current timestep
reset_timestep 0

# spherical indenter to shatter target

#q is velocity for indent.txt
variable         q equal "1+(0.001*v_l)"

# indenter radius (w) for indent.txt
variable         w equal "0.0020+(0.001*v_k)"

#disk radius(v_r)
variable r equal 0.037

variable        y0 equal 0.00510
variable        vy equal -100
variable        y equal "v_y0 + v_q*step*dt*v_vy"

#Hit the whole disk
#variable        x equal "cos((PI/2)*v_i/v_imax)*((v_i-1)/v_imax*v_r)"
#variable        z equal "sin((PI/2)*v_j/v_jmax)*((v_j-1)/v_jmax*v_r)"

#Hit the disk reduced 5times compare to disk size
variable        x equal "cos((2*PI)*v_j/v_jmax)*(v_i/v_imax)*v_r*(0.3)"
variable        z equal "sin((2*PI)*v_j/v_jmax)*(v_i/v_imax)*v_r*(0.3)"

compute         1 all damage/atom
timestep        1.0e-7
thermo          100

dump            ${count} all custom 1000 Data/dump_${count}.peri id type x y z c_1
dump            13 all custom 1000 Data/dump_${count}.peri id type x y z c_1
dump            13 all custom 1000 Data/dump_13.peri id type x y z c_1

run             1000
Neighbor list info ...
  2 neighbor list requests
  update every 1 steps, delay 10 steps, check yes
  max neighbors/atom: 2000, page size: 100000
  master list distance cutoff = 0.0025001
  ghost atom cutoff = 0.0025001
  binsize = 0.00125005 -> bins = 60 3 60
Peridynamic bonds:
  total # of bonds = 185180
  bonds/atom = 14.4053
Memory usage per processor = 9.32606 Mbytes
Step Temp E_pair E_mol TotEng Press Volume 
       0            0            0            0            0            0 1.095912e-05 
     100            0            0            0            0            0 1.095912e-05 
     200            0            0            0            0            0 1.095912e-05 
     300 8.352742e+22    29476.495            0    51711.761 1.3526189e+09 1.095912e-05 
     400 9.3708136e+24    1452111.7            0    3946652.3 1.5174823e+11 1.095912e-05 
     500 1.4935186e+26    9785630.3            0     49543574 2.4185605e+12 1.095912e-05 
     600 6.3914369e+26     17729119            0 1.8787122e+08 8.0302782e+12 1.4125048e-05 
     700 1.5515853e+27    9309111.1            0 4.2234608e+08 1.0691743e+13 2.5754264e-05 
     800 2.0681909e+27    6318151.5            0 5.5687721e+08 9.8924125e+12 3.710312e-05 
     900 2.1330159e+27    4331881.6            0 5.7214755e+08 7.4708534e+12 5.0669416e-05 
    1000 2.1314982e+27      3951651            0 5.7136331e+08 5.5448689e+12 6.8220628e-05 
Loop time of 19.7306 on 1 procs for 1000 steps with 12855 atoms

98.8% CPU use with 1 MPI tasks x 1 OpenMP threads

MPI task timing breakdown:
Section |  min time  |  avg time  |  max time  |%varavg| %total
---------------------------------------------------------------
Pair    | 18.599     | 18.599     | 18.599     |   0.0 | 94.27
Neigh   | 0.2083     | 0.2083     | 0.2083     |   0.0 |  1.06
Comm    | 0.0083423  | 0.0083423  | 0.0083423  |   0.0 |  0.04
Output  | 0.033515   | 0.033515   | 0.033515   |   0.0 |  0.17
Modify  | 0.69197    | 0.69197    | 0.69197    |   0.0 |  3.51
Other   |            | 0.1894     |            |       |  0.96

Nlocal:    12855 ave 12855 max 12855 min
Histogram: 1 0 0 0 0 0 0 0 0 0
Nghost:    0 ave 0 max 0 min
Histogram: 1 0 0 0 0 0 0 0 0 0
Neighs:    333253 ave 333253 max 333253 min
Histogram: 1 0 0 0 0 0 0 0 0 0
FullNghs:  674306 ave 674306 max 674306 min
Histogram: 1 0 0 0 0 0 0 0 0 0

Total # of neighbors = 674306
Ave neighs/atom = 52.4548
Neighbor list builds = 16
Dangerous builds = 0

# SAVE INDENTER
print $x file Data/indenter_${count}.txt
print 0.000228672575837461 file Data/indenter_${count}.txt
print 0.000228672575837461 file Data/indenter_13.txt
0.000228672575837461
print $z append Data/indenter_${count}.txt
print -0.000703781822058414 append Data/indenter_${count}.txt
print -0.000703781822058414 append Data/indenter_13.txt
-0.000703781822058414
print $w append Data/indenter_${count}.txt
print 0.003 append Data/indenter_${count}.txt
print 0.003 append Data/indenter_13.txt
0.003
print $q append Data/indenter_${count}.txt
print 1.001 append Data/indenter_${count}.txt
print 1.001 append Data/indenter_13.txt
1.001

next j
next count
jump SELF start_of_loop_4
variable j loop ${jmax}
variable j loop 10
clear
WARNING: OMP_NUM_THREADS environment is not set. (../comm.cpp:90)
  using 1 OpenMP thread(s) per MPI task

# DEFINE INITIAL CONDITIONS
# small Peridynamic cylinder hit by projectile
units		si
boundary        s s s
dimension	3
atom_style      peri
atom_modify	map array
neighbor        0.0010 bin

# small target
lattice         sc 0.001
Lattice spacing in x,y,z = 0.001 0.001 0.001
region          target cylinder y 0.0 0.0 0.037 -0.0025 0.0 units box
create_box      1 target
Created orthogonal box = (-0.037 -0.0025 -0.037) to (0.037 0 0.037)
  1 by 1 by 1 MPI processor grid
create_atoms    1 region target
Created 12855 atoms

pair_style      peri/pmb
pair_coeff      * * 1.6863e22 0.0015001 0.0005 0.25
set             group all density 2200
  12855 settings made for density
set             group all volume 1.25e-10
  12855 settings made for volume
velocity        all set 0.0 0.0 0.0 sum no units box
fix             1 all nve
fix             2 all indent 1e16 sphere v_x v_y v_z v_w units box


print "Iteration:  i = $i , j = $j, k = $k, l = $l "
Iteration:  i = 2 , j = 9, k = 1, l = 1 

print " "
 
print " "
 
print "----------------------------------------------------------------"
----------------------------------------------------------------
print "Iteration ${count} of ${countmax}"
Iteration 14 of 2325
print "----------------------------------------------------------------"
----------------------------------------------------------------
print " "
 

# Reset current timestep
reset_timestep 0

# spherical indenter to shatter target

#q is velocity for indent.txt
variable         q equal "1+(0.001*v_l)"

# indenter radius (w) for indent.txt
variable         w equal "0.0020+(0.001*v_k)"

#disk radius(v_r)
variable r equal 0.037

variable        y0 equal 0.00510
variable        vy equal -100
variable        y equal "v_y0 + v_q*step*dt*v_vy"

#Hit the whole disk
#variable        x equal "cos((PI/2)*v_i/v_imax)*((v_i-1)/v_imax*v_r)"
#variable        z equal "sin((PI/2)*v_j/v_jmax)*((v_j-1)/v_jmax*v_r)"

#Hit the disk reduced 5times compare to disk size
variable        x equal "cos((2*PI)*v_j/v_jmax)*(v_i/v_imax)*v_r*(0.3)"
variable        z equal "sin((2*PI)*v_j/v_jmax)*(v_i/v_imax)*v_r*(0.3)"

compute         1 all damage/atom
timestep        1.0e-7
thermo          100

dump            ${count} all custom 1000 Data/dump_${count}.peri id type x y z c_1
dump            14 all custom 1000 Data/dump_${count}.peri id type x y z c_1
dump            14 all custom 1000 Data/dump_14.peri id type x y z c_1

run             1000
Neighbor list info ...
  2 neighbor list requests
  update every 1 steps, delay 10 steps, check yes
  max neighbors/atom: 2000, page size: 100000
  master list distance cutoff = 0.0025001
  ghost atom cutoff = 0.0025001
  binsize = 0.00125005 -> bins = 60 3 60
Peridynamic bonds:
  total # of bonds = 185180
  bonds/atom = 14.4053
Memory usage per processor = 9.32606 Mbytes
Step Temp E_pair E_mol TotEng Press Volume 
       0            0            0            0            0            0 1.095912e-05 
     100            0            0            0            0            0 1.095912e-05 
     200            0            0            0            0            0 1.095912e-05 
     300 8.2689347e+22    29556.477            0    51568.647 1.3390474e+09 1.095912e-05 
     400 9.4763244e+24    1528785.8            0    4051413.7 1.5345684e+11 1.095912e-05 
     500 1.4793746e+26    8980130.4            0     48361555 2.3956561e+12 1.095912e-05 
     600 6.1423777e+26     14888754            0 1.7840082e+08 7.7258678e+12 1.4109489e-05 
     700 1.5234206e+27    7859886.9            0 4.1339933e+08 1.225865e+13  2.20546e-05 
     800 2.0525461e+27    4539472.6            0 5.5093381e+08 9.7240588e+12 3.7459964e-05 
     900 2.111925e+27    3955923.8            0 5.6615713e+08 7.3512351e+12 5.0984739e-05 
    1000 2.1062708e+27    4037454.1            0 5.6473348e+08 5.8119331e+12 6.4315494e-05 
Loop time of 19.7687 on 1 procs for 1000 steps with 12855 atoms

98.8% CPU use with 1 MPI tasks x 1 OpenMP threads

MPI task timing breakdown:
Section |  min time  |  avg time  |  max time  |%varavg| %total
---------------------------------------------------------------
Pair    | 18.66      | 18.66      | 18.66      |   0.0 | 94.39
Neigh   | 0.19949    | 0.19949    | 0.19949    |   0.0 |  1.01
Comm    | 0.0046833  | 0.0046833  | 0.0046833  |   0.0 |  0.02
Output  | 0.033617   | 0.033617   | 0.033617   |   0.0 |  0.17
Modify  | 0.68237    | 0.68237    | 0.68237    |   0.0 |  3.45
Other   |            | 0.1881     |            |       |  0.95

Nlocal:    12855 ave 12855 max 12855 min
Histogram: 1 0 0 0 0 0 0 0 0 0
Nghost:    0 ave 0 max 0 min
Histogram: 1 0 0 0 0 0 0 0 0 0
Neighs:    333544 ave 333544 max 333544 min
Histogram: 1 0 0 0 0 0 0 0 0 0
FullNghs:  674306 ave 674306 max 674306 min
Histogram: 1 0 0 0 0 0 0 0 0 0

Total # of neighbors = 674306
Ave neighs/atom = 52.4548
Neighbor list builds = 15
Dangerous builds = 0

# SAVE INDENTER
print $x file Data/indenter_${count}.txt
print 0.000598672575837461 file Data/indenter_${count}.txt
print 0.000598672575837461 file Data/indenter_14.txt
0.000598672575837461
print $z append Data/indenter_${count}.txt
print -0.00043496108669643 append Data/indenter_${count}.txt
print -0.00043496108669643 append Data/indenter_14.txt
-0.00043496108669643
print $w append Data/indenter_${count}.txt
print 0.003 append Data/indenter_${count}.txt
print 0.003 append Data/indenter_14.txt
0.003
print $q append Data/indenter_${count}.txt
print 1.001 append Data/indenter_${count}.txt
print 1.001 append Data/indenter_14.txt
1.001

next j
next count
jump SELF start_of_loop_4
variable j loop ${jmax}
variable j loop 10
clear
WARNING: OMP_NUM_THREADS environment is not set. (../comm.cpp:90)
  using 1 OpenMP thread(s) per MPI task

# DEFINE INITIAL CONDITIONS
# small Peridynamic cylinder hit by projectile
units		si
boundary        s s s
dimension	3
atom_style      peri
atom_modify	map array
neighbor        0.0010 bin

# small target
lattice         sc 0.001
Lattice spacing in x,y,z = 0.001 0.001 0.001
region          target cylinder y 0.0 0.0 0.037 -0.0025 0.0 units box
create_box      1 target
Created orthogonal box = (-0.037 -0.0025 -0.037) to (0.037 0 0.037)
  1 by 1 by 1 MPI processor grid
create_atoms    1 region target
Created 12855 atoms

pair_style      peri/pmb
pair_coeff      * * 1.6863e22 0.0015001 0.0005 0.25
set             group all density 2200
  12855 settings made for density
set             group all volume 1.25e-10
  12855 settings made for volume
velocity        all set 0.0 0.0 0.0 sum no units box
fix             1 all nve
fix             2 all indent 1e16 sphere v_x v_y v_z v_w units box


print "Iteration:  i = $i , j = $j, k = $k, l = $l "
Iteration:  i = 2 , j = 10, k = 1, l = 1 

print " "
 
print " "
 
print "----------------------------------------------------------------"
----------------------------------------------------------------
print "Iteration ${count} of ${countmax}"
Iteration 15 of 2325
print "----------------------------------------------------------------"
----------------------------------------------------------------
print " "
 

# Reset current timestep
reset_timestep 0

# spherical indenter to shatter target

#q is velocity for indent.txt
variable         q equal "1+(0.001*v_l)"

# indenter radius (w) for indent.txt
variable         w equal "0.0020+(0.001*v_k)"

#disk radius(v_r)
variable r equal 0.037

variable        y0 equal 0.00510
variable        vy equal -100
variable        y equal "v_y0 + v_q*step*dt*v_vy"

#Hit the whole disk
#variable        x equal "cos((PI/2)*v_i/v_imax)*((v_i-1)/v_imax*v_r)"
#variable        z equal "sin((PI/2)*v_j/v_jmax)*((v_j-1)/v_jmax*v_r)"

#Hit the disk reduced 5times compare to disk size
variable        x equal "cos((2*PI)*v_j/v_jmax)*(v_i/v_imax)*v_r*(0.3)"
variable        z equal "sin((2*PI)*v_j/v_jmax)*(v_i/v_imax)*v_r*(0.3)"

compute         1 all damage/atom
timestep        1.0e-7
thermo          100

dump            ${count} all custom 1000 Data/dump_${count}.peri id type x y z c_1
dump            15 all custom 1000 Data/dump_${count}.peri id type x y z c_1
dump            15 all custom 1000 Data/dump_15.peri id type x y z c_1

run             1000
Neighbor list info ...
  2 neighbor list requests
  update every 1 steps, delay 10 steps, check yes
  max neighbors/atom: 2000, page size: 100000
  master list distance cutoff = 0.0025001
  ghost atom cutoff = 0.0025001
  binsize = 0.00125005 -> bins = 60 3 60
Peridynamic bonds:
  total # of bonds = 185180
  bonds/atom = 14.4053
Memory usage per processor = 9.32606 Mbytes
Step Temp E_pair E_mol TotEng Press Volume 
       0            0            0            0            0            0 1.095912e-05 
     100            0            0            0            0            0 1.095912e-05 
     200            0            0            0            0            0 1.095912e-05 
     300 8.4206623e+22    29399.336            0    51815.409 1.3636177e+09 1.095912e-05 
     400 9.4115552e+24    1400403.1            0    3905789.2 1.5240799e+11 1.095912e-05 
     500 1.536102e+26    9909184.1            0     50800712 2.4875189e+12 1.095912e-05 
     600 6.8729144e+26     15723802            0 1.9868299e+08 8.7011659e+12 1.4017982e-05 
     700 1.5872403e+27    8016988.8            0 4.3054544e+08 1.1254266e+13 2.5029232e-05 
     800 2.0645633e+27    5297273.2            0 5.5489063e+08 8.6801085e+12 4.2210944e-05 
     900 2.1052358e+27    5565195.4            0 5.6598571e+08 6.2972211e+12 5.9329928e-05 
    1000 2.109248e+27      2992024            0 5.6448061e+08 4.8994677e+12 7.6401304e-05 
Loop time of 20.269 on 1 procs for 1000 steps with 12855 atoms

97.2% CPU use with 1 MPI tasks x 1 OpenMP threads

MPI task timing breakdown:
Section |  min time  |  avg time  |  max time  |%varavg| %total
---------------------------------------------------------------
Pair    | 18.993     | 18.993     | 18.993     |   0.0 | 93.70
Neigh   | 0.22157    | 0.22157    | 0.22157    |   0.0 |  1.09
Comm    | 0.0053036  | 0.0053036  | 0.0053036  |   0.0 |  0.03
Output  | 0.049228   | 0.049228   | 0.049228   |   0.0 |  0.24
Modify  | 0.77595    | 0.77595    | 0.77595    |   0.0 |  3.83
Other   |            | 0.224      |            |       |  1.11

Nlocal:    12855 ave 12855 max 12855 min
Histogram: 1 0 0 0 0 0 0 0 0 0
Nghost:    0 ave 0 max 0 min
Histogram: 1 0 0 0 0 0 0 0 0 0
Neighs:    333500 ave 333500 max 333500 min
Histogram: 1 0 0 0 0 0 0 0 0 0
FullNghs:  674306 ave 674306 max 674306 min
Histogram: 1 0 0 0 0 0 0 0 0 0

Total # of neighbors = 674306
Ave neighs/atom = 52.4548
Neighbor list builds = 16
Dangerous builds = 0

# SAVE INDENTER
print $x file Data/indenter_${count}.txt
print 0.00074 file Data/indenter_${count}.txt
print 0.00074 file Data/indenter_15.txt
0.00074
print $z append Data/indenter_${count}.txt
print -1.81247726273808e-19 append Data/indenter_${count}.txt
print -1.81247726273808e-19 append Data/indenter_15.txt
-1.81247726273808e-19
print $w append Data/indenter_${count}.txt
print 0.003 append Data/indenter_${count}.txt
print 0.003 append Data/indenter_15.txt
0.003
print $q append Data/indenter_${count}.txt
print 1.001 append Data/indenter_${count}.txt
print 1.001 append Data/indenter_15.txt
1.001

next j
next count
jump SELF start_of_loop_4

next i
jump SELF start_of_loop_3
variable i loop ${imax}
variable i loop 30

variable jmax equal "5*v_i"

print "imax = ${imax}"
imax = 30
print "jmax = ${jmax}"
jmax = 15

# Loop 4
label start_of_loop_4
variable j loop ${jmax}
variable j loop 15
clear
WARNING: OMP_NUM_THREADS environment is not set. (../comm.cpp:90)
  using 1 OpenMP thread(s) per MPI task

# DEFINE INITIAL CONDITIONS
# small Peridynamic cylinder hit by projectile
units		si
boundary        s s s
dimension	3
atom_style      peri
atom_modify	map array
neighbor        0.0010 bin

# small target
lattice         sc 0.001
Lattice spacing in x,y,z = 0.001 0.001 0.001
region          target cylinder y 0.0 0.0 0.037 -0.0025 0.0 units box
create_box      1 target
Created orthogonal box = (-0.037 -0.0025 -0.037) to (0.037 0 0.037)
  1 by 1 by 1 MPI processor grid
create_atoms    1 region target
Created 12855 atoms

pair_style      peri/pmb
pair_coeff      * * 1.6863e22 0.0015001 0.0005 0.25
set             group all density 2200
  12855 settings made for density
set             group all volume 1.25e-10
  12855 settings made for volume
velocity        all set 0.0 0.0 0.0 sum no units box
fix             1 all nve
fix             2 all indent 1e16 sphere v_x v_y v_z v_w units box


print "Iteration:  i = $i , j = $j, k = $k, l = $l "
Iteration:  i = 3 , j = 1, k = 1, l = 1 

print " "
 
print " "
 
print "----------------------------------------------------------------"
----------------------------------------------------------------
print "Iteration ${count} of ${countmax}"
Iteration 16 of 2325
print "----------------------------------------------------------------"
----------------------------------------------------------------
print " "
 

# Reset current timestep
reset_timestep 0

# spherical indenter to shatter target

#q is velocity for indent.txt
variable         q equal "1+(0.001*v_l)"

# indenter radius (w) for indent.txt
variable         w equal "0.0020+(0.001*v_k)"

#disk radius(v_r)
variable r equal 0.037

variable        y0 equal 0.00510
variable        vy equal -100
variable        y equal "v_y0 + v_q*step*dt*v_vy"

#Hit the whole disk
#variable        x equal "cos((PI/2)*v_i/v_imax)*((v_i-1)/v_imax*v_r)"
#variable        z equal "sin((PI/2)*v_j/v_jmax)*((v_j-1)/v_jmax*v_r)"

#Hit the disk reduced 5times compare to disk size
variable        x equal "cos((2*PI)*v_j/v_jmax)*(v_i/v_imax)*v_r*(0.3)"
variable        z equal "sin((2*PI)*v_j/v_jmax)*(v_i/v_imax)*v_r*(0.3)"

compute         1 all damage/atom
timestep        1.0e-7
thermo          100

dump            ${count} all custom 1000 Data/dump_${count}.peri id type x y z c_1
dump            16 all custom 1000 Data/dump_${count}.peri id type x y z c_1
dump            16 all custom 1000 Data/dump_16.peri id type x y z c_1

run             1000
Neighbor list info ...
  2 neighbor list requests
  update every 1 steps, delay 10 steps, check yes
  max neighbors/atom: 2000, page size: 100000
  master list distance cutoff = 0.0025001
  ghost atom cutoff = 0.0025001
  binsize = 0.00125005 -> bins = 60 3 60
Peridynamic bonds:
  total # of bonds = 185180
  bonds/atom = 14.4053
Memory usage per processor = 9.32606 Mbytes
Step Temp E_pair E_mol TotEng Press Volume 
       0            0            0            0            0            0 1.095912e-05 
     100            0            0            0            0            0 1.095912e-05 
     200            0            0            0            0            0 1.095912e-05 
     300 8.3585762e+22    29505.687            0    51756.484 1.3535637e+09 1.095912e-05 
     400 9.3179281e+24    1422376.5            0    3902838.8 1.5089182e+11 1.095912e-05 
     500 1.4968217e+26    9650952.7            0     49496827 2.4239096e+12 1.095912e-05 
     600 6.6233211e+26     15487853            0 1.9180278e+08 8.288103e+12 1.418217e-05 
     700 1.5894257e+27     10466610            0 4.3357683e+08 1.1212378e+13 2.515733e-05 
     800 2.073765e+27    6643352.6            0 5.5868624e+08 1.0374306e+13 3.5475009e-05 
     900 2.1221685e+27    4914703.4            0 5.6984275e+08 7.294963e+12 5.1627225e-05 
    1000 2.1179301e+27    4261406.3            0 5.6806118e+08 5.8995797e+12 6.3710728e-05 
Loop time of 20.1571 on 1 procs for 1000 steps with 12855 atoms

97.9% CPU use with 1 MPI tasks x 1 OpenMP threads

MPI task timing breakdown:
Section |  min time  |  avg time  |  max time  |%varavg| %total
---------------------------------------------------------------
Pair    | 18.918     | 18.918     | 18.918     |   0.0 | 93.85
Neigh   | 0.18379    | 0.18379    | 0.18379    |   0.0 |  0.91
Comm    | 0.0049875  | 0.0049875  | 0.0049875  |   0.0 |  0.02
Output  | 0.03577    | 0.03577    | 0.03577    |   0.0 |  0.18
Modify  | 0.78447    | 0.78447    | 0.78447    |   0.0 |  3.89
Other   |            | 0.2301     |            |       |  1.14

Nlocal:    12855 ave 12855 max 12855 min
Histogram: 1 0 0 0 0 0 0 0 0 0
Nghost:    0 ave 0 max 0 min
Histogram: 1 0 0 0 0 0 0 0 0 0
Neighs:    333413 ave 333413 max 333413 min
Histogram: 1 0 0 0 0 0 0 0 0 0
FullNghs:  674306 ave 674306 max 674306 min
Histogram: 1 0 0 0 0 0 0 0 0 0

Total # of neighbors = 674306
Ave neighs/atom = 52.4548
Neighbor list builds = 14
Dangerous builds = 0

# SAVE INDENTER
print $x file Data/indenter_${count}.txt
print 0.00101403545798329 file Data/indenter_${count}.txt
print 0.00101403545798329 file Data/indenter_16.txt
0.00101403545798329
print $z append Data/indenter_${count}.txt
print 0.000451477673814138 append Data/indenter_${count}.txt
print 0.000451477673814138 append Data/indenter_16.txt
0.000451477673814138
print $w append Data/indenter_${count}.txt
print 0.003 append Data/indenter_${count}.txt
print 0.003 append Data/indenter_16.txt
0.003
print $q append Data/indenter_${count}.txt
print 1.001 append Data/indenter_${count}.txt
print 1.001 append Data/indenter_16.txt
1.001

next j
next count
jump SELF start_of_loop_4
variable j loop ${jmax}
variable j loop 15
clear
WARNING: OMP_NUM_THREADS environment is not set. (../comm.cpp:90)
  using 1 OpenMP thread(s) per MPI task

# DEFINE INITIAL CONDITIONS
# small Peridynamic cylinder hit by projectile
units		si
boundary        s s s
dimension	3
atom_style      peri
atom_modify	map array
neighbor        0.0010 bin

# small target
lattice         sc 0.001
Lattice spacing in x,y,z = 0.001 0.001 0.001
region          target cylinder y 0.0 0.0 0.037 -0.0025 0.0 units box
create_box      1 target
Created orthogonal box = (-0.037 -0.0025 -0.037) to (0.037 0 0.037)
  1 by 1 by 1 MPI processor grid
create_atoms    1 region target
Created 12855 atoms

pair_style      peri/pmb
pair_coeff      * * 1.6863e22 0.0015001 0.0005 0.25
set             group all density 2200
  12855 settings made for density
set             group all volume 1.25e-10
  12855 settings made for volume
velocity        all set 0.0 0.0 0.0 sum no units box
fix             1 all nve
fix             2 all indent 1e16 sphere v_x v_y v_z v_w units box


print "Iteration:  i = $i , j = $j, k = $k, l = $l "
Iteration:  i = 3 , j = 2, k = 1, l = 1 

print " "
 
print " "
 
print "----------------------------------------------------------------"
----------------------------------------------------------------
print "Iteration ${count} of ${countmax}"
Iteration 17 of 2325
print "----------------------------------------------------------------"
----------------------------------------------------------------
print " "
 

# Reset current timestep
reset_timestep 0

# spherical indenter to shatter target

#q is velocity for indent.txt
variable         q equal "1+(0.001*v_l)"

# indenter radius (w) for indent.txt
variable         w equal "0.0020+(0.001*v_k)"

#disk radius(v_r)
variable r equal 0.037

variable        y0 equal 0.00510
variable        vy equal -100
variable        y equal "v_y0 + v_q*step*dt*v_vy"

#Hit the whole disk
#variable        x equal "cos((PI/2)*v_i/v_imax)*((v_i-1)/v_imax*v_r)"
#variable        z equal "sin((PI/2)*v_j/v_jmax)*((v_j-1)/v_jmax*v_r)"

#Hit the disk reduced 5times compare to disk size
variable        x equal "cos((2*PI)*v_j/v_jmax)*(v_i/v_imax)*v_r*(0.3)"
variable        z equal "sin((2*PI)*v_j/v_jmax)*(v_i/v_imax)*v_r*(0.3)"

compute         1 all damage/atom
timestep        1.0e-7
thermo          100

dump            ${count} all custom 1000 Data/dump_${count}.peri id type x y z c_1
dump            17 all custom 1000 Data/dump_${count}.peri id type x y z c_1
dump            17 all custom 1000 Data/dump_17.peri id type x y z c_1

run             1000
Neighbor list info ...
  2 neighbor list requests
  update every 1 steps, delay 10 steps, check yes
  max neighbors/atom: 2000, page size: 100000
  master list distance cutoff = 0.0025001
  ghost atom cutoff = 0.0025001
  binsize = 0.00125005 -> bins = 60 3 60
Peridynamic bonds:
  total # of bonds = 185180
  bonds/atom = 14.4053
Memory usage per processor = 9.32606 Mbytes
Step Temp E_pair E_mol TotEng Press Volume 
       0            0            0            0            0            0 1.095912e-05 
     100            0            0            0            0            0 1.095912e-05 
     200            0            0            0            0            0 1.095912e-05 
     300 8.3874822e+22    29434.072            0    51761.818 1.3582446e+09 1.095912e-05 
     400 9.416275e+24    1425633.1            0    3932275.7 1.5248442e+11 1.095912e-05 
     500 1.5170052e+26    9451681.7            0     49834846 2.456594e+12 1.095912e-05 
     600 6.3425902e+26     18487224            0 1.8732901e+08 8.0499091e+12 1.3982914e-05 
     700 1.5391279e+27      8651118            0 4.183719e+08 1.0420187e+13 2.6213271e-05 
     800 2.0407418e+27      5386036            0 5.4863803e+08 9.3413396e+12 3.8770456e-05 
     900 2.0885808e+27    5307116.3            0 5.6129403e+08 6.3597747e+12 5.8281615e-05 
    1000 2.0862844e+27    4321929.2            0 5.5969753e+08 5.0195711e+12 7.3761361e-05 
Loop time of 20.1093 on 1 procs for 1000 steps with 12855 atoms

98.3% CPU use with 1 MPI tasks x 1 OpenMP threads

MPI task timing breakdown:
Section |  min time  |  avg time  |  max time  |%varavg| %total
---------------------------------------------------------------
Pair    | 18.845     | 18.845     | 18.845     |   0.0 | 93.71
Neigh   | 0.21361    | 0.21361    | 0.21361    |   0.0 |  1.06
Comm    | 0.0053694  | 0.0053694  | 0.0053694  |   0.0 |  0.03
Output  | 0.035011   | 0.035011   | 0.035011   |   0.0 |  0.17
Modify  | 0.78329    | 0.78329    | 0.78329    |   0.0 |  3.90
Other   |            | 0.2269     |            |       |  1.13

Nlocal:    12855 ave 12855 max 12855 min
Histogram: 1 0 0 0 0 0 0 0 0 0
Nghost:    0 ave 0 max 0 min
Histogram: 1 0 0 0 0 0 0 0 0 0
Neighs:    333603 ave 333603 max 333603 min
Histogram: 1 0 0 0 0 0 0 0 0 0
FullNghs:  674306 ave 674306 max 674306 min
Histogram: 1 0 0 0 0 0 0 0 0 0

Total # of neighbors = 674306
Ave neighs/atom = 52.4548
Neighbor list builds = 16
Dangerous builds = 0

# SAVE INDENTER
print $x file Data/indenter_${count}.txt
print 0.000742734973058333 file Data/indenter_${count}.txt
print 0.000742734973058333 file Data/indenter_17.txt
0.000742734973058333
print $z append Data/indenter_${count}.txt
print 0.000824890756279907 append Data/indenter_${count}.txt
print 0.000824890756279907 append Data/indenter_17.txt
0.000824890756279907
print $w append Data/indenter_${count}.txt
print 0.003 append Data/indenter_${count}.txt
print 0.003 append Data/indenter_17.txt
0.003
print $q append Data/indenter_${count}.txt
print 1.001 append Data/indenter_${count}.txt
print 1.001 append Data/indenter_17.txt
1.001

next j
next count
jump SELF start_of_loop_4
variable j loop ${jmax}
variable j loop 15
clear
WARNING: OMP_NUM_THREADS environment is not set. (../comm.cpp:90)
  using 1 OpenMP thread(s) per MPI task

# DEFINE INITIAL CONDITIONS
# small Peridynamic cylinder hit by projectile
units		si
boundary        s s s
dimension	3
atom_style      peri
atom_modify	map array
neighbor        0.0010 bin

# small target
lattice         sc 0.001
Lattice spacing in x,y,z = 0.001 0.001 0.001
region          target cylinder y 0.0 0.0 0.037 -0.0025 0.0 units box
create_box      1 target
Created orthogonal box = (-0.037 -0.0025 -0.037) to (0.037 0 0.037)
  1 by 1 by 1 MPI processor grid
create_atoms    1 region target
Created 12855 atoms

pair_style      peri/pmb
pair_coeff      * * 1.6863e22 0.0015001 0.0005 0.25
set             group all density 2200
  12855 settings made for density
set             group all volume 1.25e-10
  12855 settings made for volume
velocity        all set 0.0 0.0 0.0 sum no units box
fix             1 all nve
fix             2 all indent 1e16 sphere v_x v_y v_z v_w units box


print "Iteration:  i = $i , j = $j, k = $k, l = $l "
Iteration:  i = 3 , j = 3, k = 1, l = 1 

print " "
 
print " "
 
print "----------------------------------------------------------------"
----------------------------------------------------------------
print "Iteration ${count} of ${countmax}"
Iteration 18 of 2325
print "----------------------------------------------------------------"
----------------------------------------------------------------
print " "
 

# Reset current timestep
reset_timestep 0

# spherical indenter to shatter target

#q is velocity for indent.txt
variable         q equal "1+(0.001*v_l)"

# indenter radius (w) for indent.txt
variable         w equal "0.0020+(0.001*v_k)"

#disk radius(v_r)
variable r equal 0.037

variable        y0 equal 0.00510
variable        vy equal -100
variable        y equal "v_y0 + v_q*step*dt*v_vy"

#Hit the whole disk
#variable        x equal "cos((PI/2)*v_i/v_imax)*((v_i-1)/v_imax*v_r)"
#variable        z equal "sin((PI/2)*v_j/v_jmax)*((v_j-1)/v_jmax*v_r)"

#Hit the disk reduced 5times compare to disk size
variable        x equal "cos((2*PI)*v_j/v_jmax)*(v_i/v_imax)*v_r*(0.3)"
variable        z equal "sin((2*PI)*v_j/v_jmax)*(v_i/v_imax)*v_r*(0.3)"

compute         1 all damage/atom
timestep        1.0e-7
thermo          100

dump            ${count} all custom 1000 Data/dump_${count}.peri id type x y z c_1
dump            18 all custom 1000 Data/dump_${count}.peri id type x y z c_1
dump            18 all custom 1000 Data/dump_18.peri id type x y z c_1

run             1000
Neighbor list info ...
  2 neighbor list requests
  update every 1 steps, delay 10 steps, check yes
  max neighbors/atom: 2000, page size: 100000
  master list distance cutoff = 0.0025001
  ghost atom cutoff = 0.0025001
  binsize = 0.00125005 -> bins = 60 3 60
Peridynamic bonds:
  total # of bonds = 185180
  bonds/atom = 14.4053
Memory usage per processor = 9.32606 Mbytes
Step Temp E_pair E_mol TotEng Press Volume 
       0            0            0            0            0            0 1.095912e-05 
     100            0            0            0            0            0 1.095912e-05 
     200            0            0            0            0            0 1.095912e-05 
     300 8.3828463e+22    29461.394            0      51776.8 1.3574939e+09 1.095912e-05 
     400 9.360345e+24    1424832.3            0    3916586.2 1.515787e+11 1.095912e-05 
     500 1.5061005e+26    9852563.3            0     49945442 2.4389353e+12 1.095912e-05 
     600 6.4706692e+26     16264583            0 1.8851587e+08 8.1528181e+12 1.4085215e-05 
     700 1.5623867e+27    9800198.1            0 4.2571254e+08 1.113616e+13 2.4898609e-05 
     800 2.0451806e+27    8410969.5            0 5.528446e+08 1.0723351e+13 3.3847231e-05 
     900 2.0949617e+27    5884971.7            0 5.6357048e+08 7.803653e+12 4.7643115e-05 
    1000 2.0985686e+27    3082735.9            0 5.6172843e+08 6.0250179e+12 6.1814001e-05 
Loop time of 20.3527 on 1 procs for 1000 steps with 12855 atoms

97.3% CPU use with 1 MPI tasks x 1 OpenMP threads

MPI task timing breakdown:
Section |  min time  |  avg time  |  max time  |%varavg| %total
---------------------------------------------------------------
Pair    | 19.061     | 19.061     | 19.061     |   0.0 | 93.65
Neigh   | 0.20064    | 0.20064    | 0.20064    |   0.0 |  0.99
Comm    | 0.0052545  | 0.0052545  | 0.0052545  |   0.0 |  0.03
Output  | 0.041391   | 0.041391   | 0.041391   |   0.0 |  0.20
Modify  | 0.79638    | 0.79638    | 0.79638    |   0.0 |  3.91
Other   |            | 0.2478     |            |       |  1.22

Nlocal:    12855 ave 12855 max 12855 min
Histogram: 1 0 0 0 0 0 0 0 0 0
Nghost:    0 ave 0 max 0 min
Histogram: 1 0 0 0 0 0 0 0 0 0
Neighs:    333612 ave 333612 max 333612 min
Histogram: 1 0 0 0 0 0 0 0 0 0
FullNghs:  674306 ave 674306 max 674306 min
Histogram: 1 0 0 0 0 0 0 0 0 0

Total # of neighbors = 674306
Ave neighs/atom = 52.4548
Neighbor list builds = 15
Dangerous builds = 0

# SAVE INDENTER
print $x file Data/indenter_${count}.txt
print 0.000343008863756192 file Data/indenter_${count}.txt
print 0.000343008863756192 file Data/indenter_18.txt
0.000343008863756192
print $z append Data/indenter_${count}.txt
print 0.00105567273308762 append Data/indenter_${count}.txt
print 0.00105567273308762 append Data/indenter_18.txt
0.00105567273308762
print $w append Data/indenter_${count}.txt
print 0.003 append Data/indenter_${count}.txt
print 0.003 append Data/indenter_18.txt
0.003
print $q append Data/indenter_${count}.txt
print 1.001 append Data/indenter_${count}.txt
print 1.001 append Data/indenter_18.txt
1.001

next j
next count
jump SELF start_of_loop_4
variable j loop ${jmax}
variable j loop 15
clear
WARNING: OMP_NUM_THREADS environment is not set. (../comm.cpp:90)
  using 1 OpenMP thread(s) per MPI task

# DEFINE INITIAL CONDITIONS
# small Peridynamic cylinder hit by projectile
units		si
boundary        s s s
dimension	3
atom_style      peri
atom_modify	map array
neighbor        0.0010 bin

# small target
lattice         sc 0.001
Lattice spacing in x,y,z = 0.001 0.001 0.001
region          target cylinder y 0.0 0.0 0.037 -0.0025 0.0 units box
create_box      1 target
Created orthogonal box = (-0.037 -0.0025 -0.037) to (0.037 0 0.037)
  1 by 1 by 1 MPI processor grid
create_atoms    1 region target
Created 12855 atoms

pair_style      peri/pmb
pair_coeff      * * 1.6863e22 0.0015001 0.0005 0.25
set             group all density 2200
  12855 settings made for density
set             group all volume 1.25e-10
  12855 settings made for volume
velocity        all set 0.0 0.0 0.0 sum no units box
fix             1 all nve
fix             2 all indent 1e16 sphere v_x v_y v_z v_w units box


print "Iteration:  i = $i , j = $j, k = $k, l = $l "
Iteration:  i = 3 , j = 4, k = 1, l = 1 

print " "
 
print " "
 
print "----------------------------------------------------------------"
----------------------------------------------------------------
print "Iteration ${count} of ${countmax}"
Iteration 19 of 2325
print "----------------------------------------------------------------"
----------------------------------------------------------------
print " "
 

# Reset current timestep
reset_timestep 0

# spherical indenter to shatter target

#q is velocity for indent.txt
variable         q equal "1+(0.001*v_l)"

# indenter radius (w) for indent.txt
variable         w equal "0.0020+(0.001*v_k)"

#disk radius(v_r)
variable r equal 0.037

variable        y0 equal 0.00510
variable        vy equal -100
variable        y equal "v_y0 + v_q*step*dt*v_vy"

#Hit the whole disk
#variable        x equal "cos((PI/2)*v_i/v_imax)*((v_i-1)/v_imax*v_r)"
#variable        z equal "sin((PI/2)*v_j/v_jmax)*((v_j-1)/v_jmax*v_r)"

#Hit the disk reduced 5times compare to disk size
variable        x equal "cos((2*PI)*v_j/v_jmax)*(v_i/v_imax)*v_r*(0.3)"
variable        z equal "sin((2*PI)*v_j/v_jmax)*(v_i/v_imax)*v_r*(0.3)"

compute         1 all damage/atom
timestep        1.0e-7
thermo          100

dump            ${count} all custom 1000 Data/dump_${count}.peri id type x y z c_1
dump            19 all custom 1000 Data/dump_${count}.peri id type x y z c_1
dump            19 all custom 1000 Data/dump_19.peri id type x y z c_1

run             1000
Neighbor list info ...
  2 neighbor list requests
  update every 1 steps, delay 10 steps, check yes
  max neighbors/atom: 2000, page size: 100000
  master list distance cutoff = 0.0025001
  ghost atom cutoff = 0.0025001
  binsize = 0.00125005 -> bins = 60 3 60
Peridynamic bonds:
  total # of bonds = 185180
  bonds/atom = 14.4053
Memory usage per processor = 9.32606 Mbytes
Step Temp E_pair E_mol TotEng Press Volume 
       0            0            0            0            0            0 1.095912e-05 
     100            0            0            0            0            0 1.095912e-05 
     200            0            0            0            0            0 1.095912e-05 
     300 8.4630911e+22    29319.325            0    51848.344 1.3704885e+09 1.095912e-05 
     400 9.4784822e+24    1357179.1            0    3880381.4 1.5349178e+11 1.095912e-05 
     500 1.5587341e+26    9477440.2            0     50971442 2.5241687e+12 1.095912e-05 
     600 6.8282255e+26     19599763            0 2.0136931e+08 8.7600465e+12 1.3833226e-05 
     700 1.5888809e+27     11374137            0 4.3433931e+08 1.1622342e+13 2.4261616e-05 
     800 2.0412086e+27    6890913.5            0 5.5026719e+08 9.2853806e+12 3.9013032e-05 
     900 2.0821568e+27    5844737.8            0 5.6012155e+08 6.8987303e+12 5.3563171e-05 
    1000 2.0814039e+27    4318538.5            0 5.5839494e+08 5.423011e+12 6.8114239e-05 
Loop time of 20.083 on 1 procs for 1000 steps with 12855 atoms

98.3% CPU use with 1 MPI tasks x 1 OpenMP threads

MPI task timing breakdown:
Section |  min time  |  avg time  |  max time  |%varavg| %total
---------------------------------------------------------------
Pair    | 18.805     | 18.805     | 18.805     |   0.0 | 93.64
Neigh   | 0.2162     | 0.2162     | 0.2162     |   0.0 |  1.08
Comm    | 0.005481   | 0.005481   | 0.005481   |   0.0 |  0.03
Output  | 0.033661   | 0.033661   | 0.033661   |   0.0 |  0.17
Modify  | 0.79244    | 0.79244    | 0.79244    |   0.0 |  3.95
Other   |            | 0.23       |            |       |  1.15

Nlocal:    12855 ave 12855 max 12855 min
Histogram: 1 0 0 0 0 0 0 0 0 0
Nghost:    0 ave 0 max 0 min
Histogram: 1 0 0 0 0 0 0 0 0 0
Neighs:    333584 ave 333584 max 333584 min
Histogram: 1 0 0 0 0 0 0 0 0 0
FullNghs:  674306 ave 674306 max 674306 min
Histogram: 1 0 0 0 0 0 0 0 0 0

Total # of neighbors = 674306
Ave neighs/atom = 52.4548
Neighbor list builds = 16
Dangerous builds = 0

# SAVE INDENTER
print $x file Data/indenter_${count}.txt
print -0.000116026594227095 file Data/indenter_${count}.txt
print -0.000116026594227095 file Data/indenter_19.txt
-0.000116026594227095
print $z append Data/indenter_${count}.txt
print 0.00110391930385878 append Data/indenter_${count}.txt
print 0.00110391930385878 append Data/indenter_19.txt
0.00110391930385878
print $w append Data/indenter_${count}.txt
print 0.003 append Data/indenter_${count}.txt
print 0.003 append Data/indenter_19.txt
0.003
print $q append Data/indenter_${count}.txt
print 1.001 append Data/indenter_${count}.txt
print 1.001 append Data/indenter_19.txt
1.001

next j
next count
jump SELF start_of_loop_4
variable j loop ${jmax}
variable j loop 15
clear
WARNING: OMP_NUM_THREADS environment is not set. (../comm.cpp:90)
  using 1 OpenMP thread(s) per MPI task

# DEFINE INITIAL CONDITIONS
# small Peridynamic cylinder hit by projectile
units		si
boundary        s s s
dimension	3
atom_style      peri
atom_modify	map array
neighbor        0.0010 bin

# small target
lattice         sc 0.001
Lattice spacing in x,y,z = 0.001 0.001 0.001
region          target cylinder y 0.0 0.0 0.037 -0.0025 0.0 units box
create_box      1 target
Created orthogonal box = (-0.037 -0.0025 -0.037) to (0.037 0 0.037)
  1 by 1 by 1 MPI processor grid
create_atoms    1 region target
Created 12855 atoms

pair_style      peri/pmb
pair_coeff      * * 1.6863e22 0.0015001 0.0005 0.25
set             group all density 2200
  12855 settings made for density
set             group all volume 1.25e-10
  12855 settings made for volume
velocity        all set 0.0 0.0 0.0 sum no units box
fix             1 all nve
fix             2 all indent 1e16 sphere v_x v_y v_z v_w units box


print "Iteration:  i = $i , j = $j, k = $k, l = $l "
Iteration:  i = 3 , j = 5, k = 1, l = 1 

print " "
 
print " "
 
print "----------------------------------------------------------------"
----------------------------------------------------------------
print "Iteration ${count} of ${countmax}"
Iteration 20 of 2325
print "----------------------------------------------------------------"
----------------------------------------------------------------
print " "
 

# Reset current timestep
reset_timestep 0

# spherical indenter to shatter target

#q is velocity for indent.txt
variable         q equal "1+(0.001*v_l)"

# indenter radius (w) for indent.txt
variable         w equal "0.0020+(0.001*v_k)"

#disk radius(v_r)
variable r equal 0.037

variable        y0 equal 0.00510
variable        vy equal -100
variable        y equal "v_y0 + v_q*step*dt*v_vy"

#Hit the whole disk
#variable        x equal "cos((PI/2)*v_i/v_imax)*((v_i-1)/v_imax*v_r)"
#variable        z equal "sin((PI/2)*v_j/v_jmax)*((v_j-1)/v_jmax*v_r)"

#Hit the disk reduced 5times compare to disk size
variable        x equal "cos((2*PI)*v_j/v_jmax)*(v_i/v_imax)*v_r*(0.3)"
variable        z equal "sin((2*PI)*v_j/v_jmax)*(v_i/v_imax)*v_r*(0.3)"

compute         1 all damage/atom
timestep        1.0e-7
thermo          100

dump            ${count} all custom 1000 Data/dump_${count}.peri id type x y z c_1
dump            20 all custom 1000 Data/dump_${count}.peri id type x y z c_1
dump            20 all custom 1000 Data/dump_20.peri id type x y z c_1

run             1000
Neighbor list info ...
  2 neighbor list requests
  update every 1 steps, delay 10 steps, check yes
  max neighbors/atom: 2000, page size: 100000
  master list distance cutoff = 0.0025001
  ghost atom cutoff = 0.0025001
  binsize = 0.00125005 -> bins = 60 3 60
Peridynamic bonds:
  total # of bonds = 185180
  bonds/atom = 14.4053
Memory usage per processor = 9.32606 Mbytes
Step Temp E_pair E_mol TotEng Press Volume 
       0            0            0            0            0            0 1.095912e-05 
     100            0            0            0            0            0 1.095912e-05 
     200            0            0            0            0            0 1.095912e-05 
     300 8.3579821e+22      29504.8            0    51754.016 1.3534675e+09 1.095912e-05 
     400 9.3213903e+24    1426394.8            0    3907778.8 1.5094788e+11 1.095912e-05 
     500 1.4946849e+26    9661274.6            0     49450265 2.4204492e+12 1.095912e-05 
     600 6.6363752e+26     15358221            0 1.9202066e+08 8.3141779e+12 1.4165556e-05 
     700 1.6005034e+27    8951343.1            0 4.3501049e+08 1.1299382e+13 2.5137607e-05 
     800 2.0614946e+27    5622902.1            0 5.5439936e+08 1.0201123e+13 3.5863794e-05 
     900   2.1048e+27    4504971.4            0 5.6480948e+08 7.2410416e+12 5.1585995e-05 
    1000 2.1047393e+27    2719475.7            0 5.6300783e+08 5.8936875e+12 6.3377227e-05 
Loop time of 19.8961 on 1 procs for 1000 steps with 12855 atoms

99.1% CPU use with 1 MPI tasks x 1 OpenMP threads

MPI task timing breakdown:
Section |  min time  |  avg time  |  max time  |%varavg| %total
---------------------------------------------------------------
Pair    | 18.675     | 18.675     | 18.675     |   0.0 | 93.86
Neigh   | 0.18389    | 0.18389    | 0.18389    |   0.0 |  0.92
Comm    | 0.0050344  | 0.0050344  | 0.0050344  |   0.0 |  0.03
Output  | 0.034695   | 0.034695   | 0.034695   |   0.0 |  0.17
Modify  | 0.76286    | 0.76286    | 0.76286    |   0.0 |  3.83
Other   |            | 0.2349     |            |       |  1.18

Nlocal:    12855 ave 12855 max 12855 min
Histogram: 1 0 0 0 0 0 0 0 0 0
Nghost:    0 ave 0 max 0 min
Histogram: 1 0 0 0 0 0 0 0 0 0
Neighs:    333328 ave 333328 max 333328 min
Histogram: 1 0 0 0 0 0 0 0 0 0
FullNghs:  674306 ave 674306 max 674306 min
Histogram: 1 0 0 0 0 0 0 0 0 0

Total # of neighbors = 674306
Ave neighs/atom = 52.4548
Neighbor list builds = 14
Dangerous builds = 0

# SAVE INDENTER
print $x file Data/indenter_${count}.txt
print -0.000555 file Data/indenter_${count}.txt
print -0.000555 file Data/indenter_20.txt
-0.000555
print $z append Data/indenter_${count}.txt
print 0.000961288198200727 append Data/indenter_${count}.txt
print 0.000961288198200727 append Data/indenter_20.txt
0.000961288198200727
print $w append Data/indenter_${count}.txt
print 0.003 append Data/indenter_${count}.txt
print 0.003 append Data/indenter_20.txt
0.003
print $q append Data/indenter_${count}.txt
print 1.001 append Data/indenter_${count}.txt
print 1.001 append Data/indenter_20.txt
1.001

next j
next count
jump SELF start_of_loop_4
variable j loop ${jmax}
variable j loop 15
clear
WARNING: OMP_NUM_THREADS environment is not set. (../comm.cpp:90)
  using 1 OpenMP thread(s) per MPI task

# DEFINE INITIAL CONDITIONS
# small Peridynamic cylinder hit by projectile
units		si
boundary        s s s
dimension	3
atom_style      peri
atom_modify	map array
neighbor        0.0010 bin

# small target
lattice         sc 0.001
Lattice spacing in x,y,z = 0.001 0.001 0.001
region          target cylinder y 0.0 0.0 0.037 -0.0025 0.0 units box
create_box      1 target
Created orthogonal box = (-0.037 -0.0025 -0.037) to (0.037 0 0.037)
  1 by 1 by 1 MPI processor grid
create_atoms    1 region target
Created 12855 atoms

pair_style      peri/pmb
pair_coeff      * * 1.6863e22 0.0015001 0.0005 0.25
set             group all density 2200
  12855 settings made for density
set             group all volume 1.25e-10
  12855 settings made for volume
velocity        all set 0.0 0.0 0.0 sum no units box
fix             1 all nve
fix             2 all indent 1e16 sphere v_x v_y v_z v_w units box


print "Iteration:  i = $i , j = $j, k = $k, l = $l "
Iteration:  i = 3 , j = 6, k = 1, l = 1 

print " "
 
print " "
 
print "----------------------------------------------------------------"
----------------------------------------------------------------
print "Iteration ${count} of ${countmax}"
Iteration 21 of 2325
print "----------------------------------------------------------------"
----------------------------------------------------------------
print " "
 

# Reset current timestep
reset_timestep 0

# spherical indenter to shatter target

#q is velocity for indent.txt
variable         q equal "1+(0.001*v_l)"

# indenter radius (w) for indent.txt
variable         w equal "0.0020+(0.001*v_k)"

#disk radius(v_r)
variable r equal 0.037

variable        y0 equal 0.00510
variable        vy equal -100
variable        y equal "v_y0 + v_q*step*dt*v_vy"

#Hit the whole disk
#variable        x equal "cos((PI/2)*v_i/v_imax)*((v_i-1)/v_imax*v_r)"
#variable        z equal "sin((PI/2)*v_j/v_jmax)*((v_j-1)/v_jmax*v_r)"

#Hit the disk reduced 5times compare to disk size
variable        x equal "cos((2*PI)*v_j/v_jmax)*(v_i/v_imax)*v_r*(0.3)"
variable        z equal "sin((2*PI)*v_j/v_jmax)*(v_i/v_imax)*v_r*(0.3)"

compute         1 all damage/atom
timestep        1.0e-7
thermo          100

dump            ${count} all custom 1000 Data/dump_${count}.peri id type x y z c_1
dump            21 all custom 1000 Data/dump_${count}.peri id type x y z c_1
dump            21 all custom 1000 Data/dump_21.peri id type x y z c_1

run             1000
Neighbor list info ...
  2 neighbor list requests
  update every 1 steps, delay 10 steps, check yes
  max neighbors/atom: 2000, page size: 100000
  master list distance cutoff = 0.0025001
  ghost atom cutoff = 0.0025001
  binsize = 0.00125005 -> bins = 60 3 60
Peridynamic bonds:
  total # of bonds = 185180
  bonds/atom = 14.4053
Memory usage per processor = 9.32606 Mbytes
Step Temp E_pair E_mol TotEng Press Volume 
       0            0            0            0            0            0 1.095912e-05 
     100            0            0            0            0            0 1.095912e-05 
     200            0            0            0            0            0 1.095912e-05 
     300 8.3728867e+22    29469.734            0    51758.626 1.3558811e+09 1.095912e-05 
     400 9.3816013e+24    1445222.9            0    3942635.2 1.5192292e+11 1.095912e-05 
     500 1.5070658e+26    9629053.5            0     49747628 2.4404985e+12 1.095912e-05 
     600 6.6076864e+26     15618911            0 1.9151764e+08 8.2587162e+12 1.4199037e-05 
     700 1.5576514e+27    9724242.7            0 4.2437602e+08 1.0695723e+13 2.5845334e-05 
     800 2.0226916e+27    8550664.1            0 5.4699765e+08 1.0091098e+13 3.557241e-05 
     900 2.0788141e+27    4431838.6            0 5.5781882e+08 7.1926168e+12 5.1292133e-05 
    1000 2.0752583e+27    4102650.6            0 5.5654307e+08 5.6531088e+12 6.5148863e-05 
Loop time of 20.1709 on 1 procs for 1000 steps with 12855 atoms

98.0% CPU use with 1 MPI tasks x 1 OpenMP threads

MPI task timing breakdown:
Section |  min time  |  avg time  |  max time  |%varavg| %total
---------------------------------------------------------------
Pair    | 18.913     | 18.913     | 18.913     |   0.0 | 93.76
Neigh   | 0.21218    | 0.21218    | 0.21218    |   0.0 |  1.05
Comm    | 0.0052819  | 0.0052819  | 0.0052819  |   0.0 |  0.03
Output  | 0.034368   | 0.034368   | 0.034368   |   0.0 |  0.17
Modify  | 0.782      | 0.782      | 0.782      |   0.0 |  3.88
Other   |            | 0.2245     |            |       |  1.11

Nlocal:    12855 ave 12855 max 12855 min
Histogram: 1 0 0 0 0 0 0 0 0 0
Nghost:    0 ave 0 max 0 min
Histogram: 1 0 0 0 0 0 0 0 0 0
Neighs:    333294 ave 333294 max 333294 min
Histogram: 1 0 0 0 0 0 0 0 0 0
FullNghs:  674306 ave 674306 max 674306 min
Histogram: 1 0 0 0 0 0 0 0 0 0

Total # of neighbors = 674306
Ave neighs/atom = 52.4548
Neighbor list builds = 16
Dangerous builds = 0

# SAVE INDENTER
print $x file Data/indenter_${count}.txt
print -0.000898008863756192 file Data/indenter_${count}.txt
print -0.000898008863756192 file Data/indenter_21.txt
-0.000898008863756192
print $z append Data/indenter_${count}.txt
print 0.000652441630044645 append Data/indenter_${count}.txt
print 0.000652441630044645 append Data/indenter_21.txt
0.000652441630044645
print $w append Data/indenter_${count}.txt
print 0.003 append Data/indenter_${count}.txt
print 0.003 append Data/indenter_21.txt
0.003
print $q append Data/indenter_${count}.txt
print 1.001 append Data/indenter_${count}.txt
print 1.001 append Data/indenter_21.txt
1.001

next j
next count
jump SELF start_of_loop_4
variable j loop ${jmax}
variable j loop 15
clear
WARNING: OMP_NUM_THREADS environment is not set. (../comm.cpp:90)
  using 1 OpenMP thread(s) per MPI task

# DEFINE INITIAL CONDITIONS
# small Peridynamic cylinder hit by projectile
units		si
boundary        s s s
dimension	3
atom_style      peri
atom_modify	map array
neighbor        0.0010 bin

# small target
lattice         sc 0.001
Lattice spacing in x,y,z = 0.001 0.001 0.001
region          target cylinder y 0.0 0.0 0.037 -0.0025 0.0 units box
create_box      1 target
Created orthogonal box = (-0.037 -0.0025 -0.037) to (0.037 0 0.037)
  1 by 1 by 1 MPI processor grid
create_atoms    1 region target
Created 12855 atoms

pair_style      peri/pmb
pair_coeff      * * 1.6863e22 0.0015001 0.0005 0.25
set             group all density 2200
  12855 settings made for density
set             group all volume 1.25e-10
  12855 settings made for volume
velocity        all set 0.0 0.0 0.0 sum no units box
fix             1 all nve
fix             2 all indent 1e16 sphere v_x v_y v_z v_w units box


print "Iteration:  i = $i , j = $j, k = $k, l = $l "
Iteration:  i = 3 , j = 7, k = 1, l = 1 

print " "
 
print " "
 
print "----------------------------------------------------------------"
----------------------------------------------------------------
print "Iteration ${count} of ${countmax}"
Iteration 22 of 2325
print "----------------------------------------------------------------"
----------------------------------------------------------------
print " "
 

# Reset current timestep
reset_timestep 0

# spherical indenter to shatter target

#q is velocity for indent.txt
variable         q equal "1+(0.001*v_l)"

# indenter radius (w) for indent.txt
variable         w equal "0.0020+(0.001*v_k)"

#disk radius(v_r)
variable r equal 0.037

variable        y0 equal 0.00510
variable        vy equal -100
variable        y equal "v_y0 + v_q*step*dt*v_vy"

#Hit the whole disk
#variable        x equal "cos((PI/2)*v_i/v_imax)*((v_i-1)/v_imax*v_r)"
#variable        z equal "sin((PI/2)*v_j/v_jmax)*((v_j-1)/v_jmax*v_r)"

#Hit the disk reduced 5times compare to disk size
variable        x equal "cos((2*PI)*v_j/v_jmax)*(v_i/v_imax)*v_r*(0.3)"
variable        z equal "sin((2*PI)*v_j/v_jmax)*(v_i/v_imax)*v_r*(0.3)"

compute         1 all damage/atom
timestep        1.0e-7
thermo          100

dump            ${count} all custom 1000 Data/dump_${count}.peri id type x y z c_1
dump            22 all custom 1000 Data/dump_${count}.peri id type x y z c_1
dump            22 all custom 1000 Data/dump_22.peri id type x y z c_1

run             1000
Neighbor list info ...
  2 neighbor list requests
  update every 1 steps, delay 10 steps, check yes
  max neighbors/atom: 2000, page size: 100000
  master list distance cutoff = 0.0025001
  ghost atom cutoff = 0.0025001
  binsize = 0.00125005 -> bins = 60 3 60
Peridynamic bonds:
  total # of bonds = 185180
  bonds/atom = 14.4053
Memory usage per processor = 9.32606 Mbytes
Step Temp E_pair E_mol TotEng Press Volume 
       0            0            0            0            0            0 1.095912e-05 
     100            0            0            0            0            0 1.095912e-05 
     200            0            0            0            0            0 1.095912e-05 
     300 8.424283e+22    29386.634            0    51812.345 1.364204e+09 1.095912e-05 
     400 9.3923162e+24    1400866.2            0    3901130.8 1.5209644e+11 1.095912e-05 
     500 1.5294166e+26    9489145.1            0     50202706 2.4766928e+12 1.095912e-05 
     600 6.4351424e+26     17841753            0 1.891473e+08 8.2151922e+12 1.3901525e-05 
     700 1.5396329e+27     10883305            0 4.2073851e+08 1.1076521e+13 2.4668106e-05 
     800 2.0306423e+27    4914288.3            0 5.4547777e+08 9.3823041e+12 3.8410144e-05 
     900 2.0701662e+27    5305508.2            0 5.5639039e+08 7.135048e+12 5.1490883e-05 
    1000 2.0674579e+27    3898053.7            0 5.5426197e+08 5.4086216e+12 6.7837852e-05 
Loop time of 19.87 on 1 procs for 1000 steps with 12855 atoms

99.2% CPU use with 1 MPI tasks x 1 OpenMP threads

MPI task timing breakdown:
Section |  min time  |  avg time  |  max time  |%varavg| %total
---------------------------------------------------------------
Pair    | 18.646     | 18.646     | 18.646     |   0.0 | 93.84
Neigh   | 0.22165    | 0.22165    | 0.22165    |   0.0 |  1.12
Comm    | 0.0052507  | 0.0052507  | 0.0052507  |   0.0 |  0.03
Output  | 0.034135   | 0.034135   | 0.034135   |   0.0 |  0.17
Modify  | 0.74816    | 0.74816    | 0.74816    |   0.0 |  3.77
Other   |            | 0.2152     |            |       |  1.08

Nlocal:    12855 ave 12855 max 12855 min
Histogram: 1 0 0 0 0 0 0 0 0 0
Nghost:    0 ave 0 max 0 min
Histogram: 1 0 0 0 0 0 0 0 0 0
Neighs:    333546 ave 333546 max 333546 min
Histogram: 1 0 0 0 0 0 0 0 0 0
FullNghs:  674306 ave 674306 max 674306 min
Histogram: 1 0 0 0 0 0 0 0 0 0

Total # of neighbors = 674306
Ave neighs/atom = 52.4548
Neighbor list builds = 17
Dangerous builds = 0

# SAVE INDENTER
print $x file Data/indenter_${count}.txt
print -0.00108574383681452 file Data/indenter_${count}.txt
print -0.00108574383681452 file Data/indenter_22.txt
-0.00108574383681452
print $z append Data/indenter_${count}.txt
print 0.000230781976807713 append Data/indenter_${count}.txt
print 0.000230781976807713 append Data/indenter_22.txt
0.000230781976807713
print $w append Data/indenter_${count}.txt
print 0.003 append Data/indenter_${count}.txt
print 0.003 append Data/indenter_22.txt
0.003
print $q append Data/indenter_${count}.txt
print 1.001 append Data/indenter_${count}.txt
print 1.001 append Data/indenter_22.txt
1.001

next j
next count
jump SELF start_of_loop_4
variable j loop ${jmax}
variable j loop 15
clear
WARNING: OMP_NUM_THREADS environment is not set. (../comm.cpp:90)
  using 1 OpenMP thread(s) per MPI task

# DEFINE INITIAL CONDITIONS
# small Peridynamic cylinder hit by projectile
units		si
boundary        s s s
dimension	3
atom_style      peri
atom_modify	map array
neighbor        0.0010 bin

# small target
lattice         sc 0.001
Lattice spacing in x,y,z = 0.001 0.001 0.001
region          target cylinder y 0.0 0.0 0.037 -0.0025 0.0 units box
create_box      1 target
Created orthogonal box = (-0.037 -0.0025 -0.037) to (0.037 0 0.037)
  1 by 1 by 1 MPI processor grid
create_atoms    1 region target
Created 12855 atoms

pair_style      peri/pmb
pair_coeff      * * 1.6863e22 0.0015001 0.0005 0.25
set             group all density 2200
  12855 settings made for density
set             group all volume 1.25e-10
  12855 settings made for volume
velocity        all set 0.0 0.0 0.0 sum no units box
fix             1 all nve
fix             2 all indent 1e16 sphere v_x v_y v_z v_w units box


print "Iteration:  i = $i , j = $j, k = $k, l = $l "
Iteration:  i = 3 , j = 8, k = 1, l = 1 

print " "
 
print " "
 
print "----------------------------------------------------------------"
----------------------------------------------------------------
print "Iteration ${count} of ${countmax}"
Iteration 23 of 2325
print "----------------------------------------------------------------"
----------------------------------------------------------------
print " "
 

# Reset current timestep
reset_timestep 0

# spherical indenter to shatter target

#q is velocity for indent.txt
variable         q equal "1+(0.001*v_l)"

# indenter radius (w) for indent.txt
variable         w equal "0.0020+(0.001*v_k)"

#disk radius(v_r)
variable r equal 0.037

variable        y0 equal 0.00510
variable        vy equal -100
variable        y equal "v_y0 + v_q*step*dt*v_vy"

#Hit the whole disk
#variable        x equal "cos((PI/2)*v_i/v_imax)*((v_i-1)/v_imax*v_r)"
#variable        z equal "sin((PI/2)*v_j/v_jmax)*((v_j-1)/v_jmax*v_r)"

#Hit the disk reduced 5times compare to disk size
variable        x equal "cos((2*PI)*v_j/v_jmax)*(v_i/v_imax)*v_r*(0.3)"
variable        z equal "sin((2*PI)*v_j/v_jmax)*(v_i/v_imax)*v_r*(0.3)"

compute         1 all damage/atom
timestep        1.0e-7
thermo          100

dump            ${count} all custom 1000 Data/dump_${count}.peri id type x y z c_1
dump            23 all custom 1000 Data/dump_${count}.peri id type x y z c_1
dump            23 all custom 1000 Data/dump_23.peri id type x y z c_1

run             1000
Neighbor list info ...
  2 neighbor list requests
  update every 1 steps, delay 10 steps, check yes
  max neighbors/atom: 2000, page size: 100000
  master list distance cutoff = 0.0025001
  ghost atom cutoff = 0.0025001
  binsize = 0.00125005 -> bins = 60 3 60
Peridynamic bonds:
  total # of bonds = 185180
  bonds/atom = 14.4053
Memory usage per processor = 9.32606 Mbytes
Step Temp E_pair E_mol TotEng Press Volume 
       0            0            0            0            0            0 1.095912e-05 
     100            0            0            0            0            0 1.095912e-05 
     200            0            0            0            0            0 1.095912e-05 
     300 8.424283e+22    29386.634            0    51812.345 1.364204e+09 1.095912e-05 
     400 9.3923162e+24    1400866.2            0    3901130.8 1.5209644e+11 1.095912e-05 
     500 1.5294166e+26    9489145.1            0     50202706 2.4766928e+12 1.095912e-05 
     600 6.4351424e+26     17841753            0 1.891473e+08 8.2151922e+12 1.3901525e-05 
     700 1.5396329e+27     10883305            0 4.2073851e+08 1.1076521e+13 2.4668106e-05 
     800 2.0306423e+27    4914288.3            0 5.4547777e+08 9.3823041e+12 3.8410144e-05 
     900 2.0701662e+27    5305508.2            0 5.5639039e+08 7.135048e+12 5.1490883e-05 
    1000 2.0674579e+27    3898053.7            0 5.5426197e+08 5.4086216e+12 6.7837852e-05 
Loop time of 20.0122 on 1 procs for 1000 steps with 12855 atoms

98.6% CPU use with 1 MPI tasks x 1 OpenMP threads

MPI task timing breakdown:
Section |  min time  |  avg time  |  max time  |%varavg| %total
---------------------------------------------------------------
Pair    | 18.766     | 18.766     | 18.766     |   0.0 | 93.77
Neigh   | 0.2214     | 0.2214     | 0.2214     |   0.0 |  1.11
Comm    | 0.0053246  | 0.0053246  | 0.0053246  |   0.0 |  0.03
Output  | 0.035337   | 0.035337   | 0.035337   |   0.0 |  0.18
Modify  | 0.76782    | 0.76782    | 0.76782    |   0.0 |  3.84
Other   |            | 0.2161     |            |       |  1.08

Nlocal:    12855 ave 12855 max 12855 min
Histogram: 1 0 0 0 0 0 0 0 0 0
Nghost:    0 ave 0 max 0 min
Histogram: 1 0 0 0 0 0 0 0 0 0
Neighs:    333546 ave 333546 max 333546 min
Histogram: 1 0 0 0 0 0 0 0 0 0
FullNghs:  674306 ave 674306 max 674306 min
Histogram: 1 0 0 0 0 0 0 0 0 0

Total # of neighbors = 674306
Ave neighs/atom = 52.4548
Neighbor list builds = 17
Dangerous builds = 0

# SAVE INDENTER
print $x file Data/indenter_${count}.txt
print -0.00108574383681452 file Data/indenter_${count}.txt
print -0.00108574383681452 file Data/indenter_23.txt
-0.00108574383681452
print $z append Data/indenter_${count}.txt
print -0.000230781976807713 append Data/indenter_${count}.txt
print -0.000230781976807713 append Data/indenter_23.txt
-0.000230781976807713
print $w append Data/indenter_${count}.txt
print 0.003 append Data/indenter_${count}.txt
print 0.003 append Data/indenter_23.txt
0.003
print $q append Data/indenter_${count}.txt
print 1.001 append Data/indenter_${count}.txt
print 1.001 append Data/indenter_23.txt
1.001

next j
next count
jump SELF start_of_loop_4
variable j loop ${jmax}
variable j loop 15
clear
WARNING: OMP_NUM_THREADS environment is not set. (../comm.cpp:90)
  using 1 OpenMP thread(s) per MPI task

# DEFINE INITIAL CONDITIONS
# small Peridynamic cylinder hit by projectile
units		si
boundary        s s s
dimension	3
atom_style      peri
atom_modify	map array
neighbor        0.0010 bin

# small target
lattice         sc 0.001
Lattice spacing in x,y,z = 0.001 0.001 0.001
region          target cylinder y 0.0 0.0 0.037 -0.0025 0.0 units box
create_box      1 target
Created orthogonal box = (-0.037 -0.0025 -0.037) to (0.037 0 0.037)
  1 by 1 by 1 MPI processor grid
create_atoms    1 region target
Created 12855 atoms

pair_style      peri/pmb
pair_coeff      * * 1.6863e22 0.0015001 0.0005 0.25
set             group all density 2200
  12855 settings made for density
set             group all volume 1.25e-10
  12855 settings made for volume
velocity        all set 0.0 0.0 0.0 sum no units box
fix             1 all nve
fix             2 all indent 1e16 sphere v_x v_y v_z v_w units box


print "Iteration:  i = $i , j = $j, k = $k, l = $l "
Iteration:  i = 3 , j = 9, k = 1, l = 1 

print " "
 
print " "
 
print "----------------------------------------------------------------"
----------------------------------------------------------------
print "Iteration ${count} of ${countmax}"
Iteration 24 of 2325
print "----------------------------------------------------------------"
----------------------------------------------------------------
print " "
 

# Reset current timestep
reset_timestep 0

# spherical indenter to shatter target

#q is velocity for indent.txt
variable         q equal "1+(0.001*v_l)"

# indenter radius (w) for indent.txt
variable         w equal "0.0020+(0.001*v_k)"

#disk radius(v_r)
variable r equal 0.037

variable        y0 equal 0.00510
variable        vy equal -100
variable        y equal "v_y0 + v_q*step*dt*v_vy"

#Hit the whole disk
#variable        x equal "cos((PI/2)*v_i/v_imax)*((v_i-1)/v_imax*v_r)"
#variable        z equal "sin((PI/2)*v_j/v_jmax)*((v_j-1)/v_jmax*v_r)"

#Hit the disk reduced 5times compare to disk size
variable        x equal "cos((2*PI)*v_j/v_jmax)*(v_i/v_imax)*v_r*(0.3)"
variable        z equal "sin((2*PI)*v_j/v_jmax)*(v_i/v_imax)*v_r*(0.3)"

compute         1 all damage/atom
timestep        1.0e-7
thermo          100

dump            ${count} all custom 1000 Data/dump_${count}.peri id type x y z c_1
dump            24 all custom 1000 Data/dump_${count}.peri id type x y z c_1
dump            24 all custom 1000 Data/dump_24.peri id type x y z c_1

run             1000
Neighbor list info ...
  2 neighbor list requests
  update every 1 steps, delay 10 steps, check yes
  max neighbors/atom: 2000, page size: 100000
  master list distance cutoff = 0.0025001
  ghost atom cutoff = 0.0025001
  binsize = 0.00125005 -> bins = 60 3 60
Peridynamic bonds:
  total # of bonds = 185180
  bonds/atom = 14.4053
Memory usage per processor = 9.32606 Mbytes
Step Temp E_pair E_mol TotEng Press Volume 
       0            0            0            0            0            0 1.095912e-05 
     100            0            0            0            0            0 1.095912e-05 
     200            0            0            0            0            0 1.095912e-05 
     300 8.3728867e+22    29469.734            0    51758.626 1.3558811e+09 1.095912e-05 
     400 9.3816013e+24    1445222.9            0    3942635.2 1.5192292e+11 1.095912e-05 
     500 1.5070658e+26    9629053.5            0     49747628 2.4404985e+12 1.095912e-05 
     600 6.6076864e+26     15618911            0 1.9151764e+08 8.2587162e+12 1.4199037e-05 
     700 1.5576514e+27    9724242.7            0 4.2437602e+08 1.0695723e+13 2.5845334e-05 
     800 2.0226916e+27    8550664.1            0 5.4699765e+08 1.0091098e+13 3.557241e-05 
     900 2.0788141e+27    4431838.6            0 5.5781882e+08 7.1926168e+12 5.1292133e-05 
    1000 2.0752583e+27    4102650.6            0 5.5654307e+08 5.6531088e+12 6.5148863e-05 
Loop time of 20.0438 on 1 procs for 1000 steps with 12855 atoms

98.5% CPU use with 1 MPI tasks x 1 OpenMP threads

MPI task timing breakdown:
Section |  min time  |  avg time  |  max time  |%varavg| %total
---------------------------------------------------------------
Pair    | 18.801     | 18.801     | 18.801     |   0.0 | 93.80
Neigh   | 0.21136    | 0.21136    | 0.21136    |   0.0 |  1.05
Comm    | 0.0051482  | 0.0051482  | 0.0051482  |   0.0 |  0.03
Output  | 0.033581   | 0.033581   | 0.033581   |   0.0 |  0.17
Modify  | 0.75986    | 0.75986    | 0.75986    |   0.0 |  3.79
Other   |            | 0.2331     |            |       |  1.16

Nlocal:    12855 ave 12855 max 12855 min
Histogram: 1 0 0 0 0 0 0 0 0 0
Nghost:    0 ave 0 max 0 min
Histogram: 1 0 0 0 0 0 0 0 0 0
Neighs:    333294 ave 333294 max 333294 min
Histogram: 1 0 0 0 0 0 0 0 0 0
FullNghs:  674306 ave 674306 max 674306 min
Histogram: 1 0 0 0 0 0 0 0 0 0

Total # of neighbors = 674306
Ave neighs/atom = 52.4548
Neighbor list builds = 16
Dangerous builds = 0

# SAVE INDENTER
print $x file Data/indenter_${count}.txt
print -0.000898008863756192 file Data/indenter_${count}.txt
print -0.000898008863756192 file Data/indenter_24.txt
-0.000898008863756192
print $z append Data/indenter_${count}.txt
print -0.000652441630044645 append Data/indenter_${count}.txt
print -0.000652441630044645 append Data/indenter_24.txt
-0.000652441630044645
print $w append Data/indenter_${count}.txt
print 0.003 append Data/indenter_${count}.txt
print 0.003 append Data/indenter_24.txt
0.003
print $q append Data/indenter_${count}.txt
print 1.001 append Data/indenter_${count}.txt
print 1.001 append Data/indenter_24.txt
1.001

next j
next count
jump SELF start_of_loop_4
variable j loop ${jmax}
variable j loop 15
clear
WARNING: OMP_NUM_THREADS environment is not set. (../comm.cpp:90)
  using 1 OpenMP thread(s) per MPI task

# DEFINE INITIAL CONDITIONS
# small Peridynamic cylinder hit by projectile
units		si
boundary        s s s
dimension	3
atom_style      peri
atom_modify	map array
neighbor        0.0010 bin

# small target
lattice         sc 0.001
Lattice spacing in x,y,z = 0.001 0.001 0.001
region          target cylinder y 0.0 0.0 0.037 -0.0025 0.0 units box
create_box      1 target
Created orthogonal box = (-0.037 -0.0025 -0.037) to (0.037 0 0.037)
  1 by 1 by 1 MPI processor grid
create_atoms    1 region target
Created 12855 atoms

pair_style      peri/pmb
pair_coeff      * * 1.6863e22 0.0015001 0.0005 0.25
set             group all density 2200
  12855 settings made for density
set             group all volume 1.25e-10
  12855 settings made for volume
velocity        all set 0.0 0.0 0.0 sum no units box
fix             1 all nve
fix             2 all indent 1e16 sphere v_x v_y v_z v_w units box


print "Iteration:  i = $i , j = $j, k = $k, l = $l "
Iteration:  i = 3 , j = 10, k = 1, l = 1 

print " "
 
print " "
 
print "----------------------------------------------------------------"
----------------------------------------------------------------
print "Iteration ${count} of ${countmax}"
Iteration 25 of 2325
print "----------------------------------------------------------------"
----------------------------------------------------------------
print " "
 

# Reset current timestep
reset_timestep 0

# spherical indenter to shatter target

#q is velocity for indent.txt
variable         q equal "1+(0.001*v_l)"

# indenter radius (w) for indent.txt
variable         w equal "0.0020+(0.001*v_k)"

#disk radius(v_r)
variable r equal 0.037

variable        y0 equal 0.00510
variable        vy equal -100
variable        y equal "v_y0 + v_q*step*dt*v_vy"

#Hit the whole disk
#variable        x equal "cos((PI/2)*v_i/v_imax)*((v_i-1)/v_imax*v_r)"
#variable        z equal "sin((PI/2)*v_j/v_jmax)*((v_j-1)/v_jmax*v_r)"

#Hit the disk reduced 5times compare to disk size
variable        x equal "cos((2*PI)*v_j/v_jmax)*(v_i/v_imax)*v_r*(0.3)"
variable        z equal "sin((2*PI)*v_j/v_jmax)*(v_i/v_imax)*v_r*(0.3)"

compute         1 all damage/atom
timestep        1.0e-7
thermo          100

dump            ${count} all custom 1000 Data/dump_${count}.peri id type x y z c_1
dump            25 all custom 1000 Data/dump_${count}.peri id type x y z c_1
dump            25 all custom 1000 Data/dump_25.peri id type x y z c_1

run             1000
Neighbor list info ...
  2 neighbor list requests
  update every 1 steps, delay 10 steps, check yes
  max neighbors/atom: 2000, page size: 100000
  master list distance cutoff = 0.0025001
  ghost atom cutoff = 0.0025001
  binsize = 0.00125005 -> bins = 60 3 60
Peridynamic bonds:
  total # of bonds = 185180
  bonds/atom = 14.4053
Memory usage per processor = 9.32606 Mbytes
Step Temp E_pair E_mol TotEng Press Volume 
       0            0            0            0            0            0 1.095912e-05 
     100            0            0            0            0            0 1.095912e-05 
     200            0            0            0            0            0 1.095912e-05 
     300 8.3579821e+22      29504.8            0    51754.016 1.3534675e+09 1.095912e-05 
     400 9.3213903e+24    1426394.8            0    3907778.8 1.5094788e+11 1.095912e-05 
     500 1.4946849e+26    9661274.6            0     49450265 2.4204492e+12 1.095912e-05 
     600 6.6363752e+26     15358221            0 1.9202066e+08 8.3141779e+12 1.4165556e-05 
     700 1.6005034e+27    8951343.1            0 4.3501049e+08 1.1299382e+13 2.5137607e-05 
     800 2.0614946e+27    5622902.1            0 5.5439936e+08 1.0201123e+13 3.5863794e-05 
     900   2.1048e+27    4504971.4            0 5.6480948e+08 7.2410416e+12 5.1585995e-05 
    1000 2.1047393e+27    2719475.7            0 5.6300783e+08 5.8936875e+12 6.3377227e-05 
Loop time of 19.8197 on 1 procs for 1000 steps with 12855 atoms

99.2% CPU use with 1 MPI tasks x 1 OpenMP threads

MPI task timing breakdown:
Section |  min time  |  avg time  |  max time  |%varavg| %total
---------------------------------------------------------------
Pair    | 18.63      | 18.63      | 18.63      |   0.0 | 94.00
Neigh   | 0.1831     | 0.1831     | 0.1831     |   0.0 |  0.92
Comm    | 0.0046742  | 0.0046742  | 0.0046742  |   0.0 |  0.02
Output  | 0.033528   | 0.033528   | 0.033528   |   0.0 |  0.17
Modify  | 0.74647    | 0.74647    | 0.74647    |   0.0 |  3.77
Other   |            | 0.2218     |            |       |  1.12

Nlocal:    12855 ave 12855 max 12855 min
Histogram: 1 0 0 0 0 0 0 0 0 0
Nghost:    0 ave 0 max 0 min
Histogram: 1 0 0 0 0 0 0 0 0 0
Neighs:    333328 ave 333328 max 333328 min
Histogram: 1 0 0 0 0 0 0 0 0 0
FullNghs:  674306 ave 674306 max 674306 min
Histogram: 1 0 0 0 0 0 0 0 0 0

Total # of neighbors = 674306
Ave neighs/atom = 52.4548
Neighbor list builds = 14
Dangerous builds = 0

# SAVE INDENTER
print $x file Data/indenter_${count}.txt
print -0.000555 file Data/indenter_${count}.txt
print -0.000555 file Data/indenter_25.txt
-0.000555
print $z append Data/indenter_${count}.txt
print -0.000961288198200727 append Data/indenter_${count}.txt
print -0.000961288198200727 append Data/indenter_25.txt
-0.000961288198200727
print $w append Data/indenter_${count}.txt
print 0.003 append Data/indenter_${count}.txt
print 0.003 append Data/indenter_25.txt
0.003
print $q append Data/indenter_${count}.txt
print 1.001 append Data/indenter_${count}.txt
print 1.001 append Data/indenter_25.txt
1.001

next j
next count
jump SELF start_of_loop_4
variable j loop ${jmax}
variable j loop 15
clear
WARNING: OMP_NUM_THREADS environment is not set. (../comm.cpp:90)
  using 1 OpenMP thread(s) per MPI task

# DEFINE INITIAL CONDITIONS
# small Peridynamic cylinder hit by projectile
units		si
boundary        s s s
dimension	3
atom_style      peri
atom_modify	map array
neighbor        0.0010 bin

# small target
lattice         sc 0.001
Lattice spacing in x,y,z = 0.001 0.001 0.001
region          target cylinder y 0.0 0.0 0.037 -0.0025 0.0 units box
create_box      1 target
Created orthogonal box = (-0.037 -0.0025 -0.037) to (0.037 0 0.037)
  1 by 1 by 1 MPI processor grid
create_atoms    1 region target
Created 12855 atoms

pair_style      peri/pmb
pair_coeff      * * 1.6863e22 0.0015001 0.0005 0.25
set             group all density 2200
  12855 settings made for density
set             group all volume 1.25e-10
  12855 settings made for volume
velocity        all set 0.0 0.0 0.0 sum no units box
fix             1 all nve
fix             2 all indent 1e16 sphere v_x v_y v_z v_w units box


print "Iteration:  i = $i , j = $j, k = $k, l = $l "
Iteration:  i = 3 , j = 11, k = 1, l = 1 

print " "
 
print " "
 
print "----------------------------------------------------------------"
----------------------------------------------------------------
print "Iteration ${count} of ${countmax}"
Iteration 26 of 2325
print "----------------------------------------------------------------"
----------------------------------------------------------------
print " "
 

# Reset current timestep
reset_timestep 0

# spherical indenter to shatter target

#q is velocity for indent.txt
variable         q equal "1+(0.001*v_l)"

# indenter radius (w) for indent.txt
variable         w equal "0.0020+(0.001*v_k)"

#disk radius(v_r)
variable r equal 0.037

variable        y0 equal 0.00510
variable        vy equal -100
variable        y equal "v_y0 + v_q*step*dt*v_vy"

#Hit the whole disk
#variable        x equal "cos((PI/2)*v_i/v_imax)*((v_i-1)/v_imax*v_r)"
#variable        z equal "sin((PI/2)*v_j/v_jmax)*((v_j-1)/v_jmax*v_r)"

#Hit the disk reduced 5times compare to disk size
variable        x equal "cos((2*PI)*v_j/v_jmax)*(v_i/v_imax)*v_r*(0.3)"
variable        z equal "sin((2*PI)*v_j/v_jmax)*(v_i/v_imax)*v_r*(0.3)"

compute         1 all damage/atom
timestep        1.0e-7
thermo          100

dump            ${count} all custom 1000 Data/dump_${count}.peri id type x y z c_1
dump            26 all custom 1000 Data/dump_${count}.peri id type x y z c_1
dump            26 all custom 1000 Data/dump_26.peri id type x y z c_1

run             1000
Neighbor list info ...
  2 neighbor list requests
  update every 1 steps, delay 10 steps, check yes
  max neighbors/atom: 2000, page size: 100000
  master list distance cutoff = 0.0025001
  ghost atom cutoff = 0.0025001
  binsize = 0.00125005 -> bins = 60 3 60
Peridynamic bonds:
  total # of bonds = 185180
  bonds/atom = 14.4053
Memory usage per processor = 9.32606 Mbytes
Step Temp E_pair E_mol TotEng Press Volume 
       0            0            0            0            0            0 1.095912e-05 
     100            0            0            0            0            0 1.095912e-05 
     200            0            0            0            0            0 1.095912e-05 
     300 8.4630911e+22    29319.325            0    51848.344 1.3704885e+09 1.095912e-05 
     400 9.4784822e+24    1357179.1            0    3880381.4 1.5349178e+11 1.095912e-05 
     500 1.5587341e+26    9477440.2            0     50971442 2.5241687e+12 1.095912e-05 
     600 6.8282255e+26     19599763            0 2.0136931e+08 8.7600465e+12 1.3833226e-05 
     700 1.5888809e+27     11374137            0 4.3433931e+08 1.1622342e+13 2.4261616e-05 
     800 2.0412086e+27    6890913.5            0 5.5026719e+08 9.2853806e+12 3.9013032e-05 
     900 2.0821568e+27    5844737.8            0 5.6012155e+08 6.8987303e+12 5.3563171e-05 
    1000 2.0814039e+27    4318538.5            0 5.5839494e+08 5.423011e+12 6.8114239e-05 
Loop time of 19.9373 on 1 procs for 1000 steps with 12855 atoms

98.6% CPU use with 1 MPI tasks x 1 OpenMP threads

MPI task timing breakdown:
Section |  min time  |  avg time  |  max time  |%varavg| %total
---------------------------------------------------------------
Pair    | 18.733     | 18.733     | 18.733     |   0.0 | 93.96
Neigh   | 0.20727    | 0.20727    | 0.20727    |   0.0 |  1.04
Comm    | 0.0050304  | 0.0050304  | 0.0050304  |   0.0 |  0.03
Output  | 0.033913   | 0.033913   | 0.033913   |   0.0 |  0.17
Modify  | 0.74183    | 0.74183    | 0.74183    |   0.0 |  3.72
Other   |            | 0.2161     |            |       |  1.08

Nlocal:    12855 ave 12855 max 12855 min
Histogram: 1 0 0 0 0 0 0 0 0 0
Nghost:    0 ave 0 max 0 min
Histogram: 1 0 0 0 0 0 0 0 0 0
Neighs:    333584 ave 333584 max 333584 min
Histogram: 1 0 0 0 0 0 0 0 0 0
FullNghs:  674306 ave 674306 max 674306 min
Histogram: 1 0 0 0 0 0 0 0 0 0

Total # of neighbors = 674306
Ave neighs/atom = 52.4548
Neighbor list builds = 16
Dangerous builds = 0

# SAVE INDENTER
print $x file Data/indenter_${count}.txt
print -0.000116026594227096 file Data/indenter_${count}.txt
print -0.000116026594227096 file Data/indenter_26.txt
-0.000116026594227096
print $z append Data/indenter_${count}.txt
print -0.00110391930385878 append Data/indenter_${count}.txt
print -0.00110391930385878 append Data/indenter_26.txt
-0.00110391930385878
print $w append Data/indenter_${count}.txt
print 0.003 append Data/indenter_${count}.txt
print 0.003 append Data/indenter_26.txt
0.003
print $q append Data/indenter_${count}.txt
print 1.001 append Data/indenter_${count}.txt
print 1.001 append Data/indenter_26.txt
1.001

next j
next count
jump SELF start_of_loop_4
variable j loop ${jmax}
variable j loop 15
clear
WARNING: OMP_NUM_THREADS environment is not set. (../comm.cpp:90)
  using 1 OpenMP thread(s) per MPI task

# DEFINE INITIAL CONDITIONS
# small Peridynamic cylinder hit by projectile
units		si
boundary        s s s
dimension	3
atom_style      peri
atom_modify	map array
neighbor        0.0010 bin

# small target
lattice         sc 0.001
Lattice spacing in x,y,z = 0.001 0.001 0.001
region          target cylinder y 0.0 0.0 0.037 -0.0025 0.0 units box
create_box      1 target
Created orthogonal box = (-0.037 -0.0025 -0.037) to (0.037 0 0.037)
  1 by 1 by 1 MPI processor grid
create_atoms    1 region target
Created 12855 atoms

pair_style      peri/pmb
pair_coeff      * * 1.6863e22 0.0015001 0.0005 0.25
set             group all density 2200
  12855 settings made for density
set             group all volume 1.25e-10
  12855 settings made for volume
velocity        all set 0.0 0.0 0.0 sum no units box
fix             1 all nve
fix             2 all indent 1e16 sphere v_x v_y v_z v_w units box


print "Iteration:  i = $i , j = $j, k = $k, l = $l "
Iteration:  i = 3 , j = 12, k = 1, l = 1 

print " "
 
print " "
 
print "----------------------------------------------------------------"
----------------------------------------------------------------
print "Iteration ${count} of ${countmax}"
Iteration 27 of 2325
print "----------------------------------------------------------------"
----------------------------------------------------------------
print " "
 

# Reset current timestep
reset_timestep 0

# spherical indenter to shatter target

#q is velocity for indent.txt
variable         q equal "1+(0.001*v_l)"

# indenter radius (w) for indent.txt
variable         w equal "0.0020+(0.001*v_k)"

#disk radius(v_r)
variable r equal 0.037

variable        y0 equal 0.00510
variable        vy equal -100
variable        y equal "v_y0 + v_q*step*dt*v_vy"

#Hit the whole disk
#variable        x equal "cos((PI/2)*v_i/v_imax)*((v_i-1)/v_imax*v_r)"
#variable        z equal "sin((PI/2)*v_j/v_jmax)*((v_j-1)/v_jmax*v_r)"

#Hit the disk reduced 5times compare to disk size
variable        x equal "cos((2*PI)*v_j/v_jmax)*(v_i/v_imax)*v_r*(0.3)"
variable        z equal "sin((2*PI)*v_j/v_jmax)*(v_i/v_imax)*v_r*(0.3)"

compute         1 all damage/atom
timestep        1.0e-7
thermo          100

dump            ${count} all custom 1000 Data/dump_${count}.peri id type x y z c_1
dump            27 all custom 1000 Data/dump_${count}.peri id type x y z c_1
dump            27 all custom 1000 Data/dump_27.peri id type x y z c_1

run             1000
Neighbor list info ...
  2 neighbor list requests
  update every 1 steps, delay 10 steps, check yes
  max neighbors/atom: 2000, page size: 100000
  master list distance cutoff = 0.0025001
  ghost atom cutoff = 0.0025001
  binsize = 0.00125005 -> bins = 60 3 60
Peridynamic bonds:
  total # of bonds = 185180
  bonds/atom = 14.4053
Memory usage per processor = 9.32606 Mbytes
Step Temp E_pair E_mol TotEng Press Volume 
       0            0            0            0            0            0 1.095912e-05 
     100            0            0            0            0            0 1.095912e-05 
     200            0            0            0            0            0 1.095912e-05 
     300 8.3828463e+22    29461.394            0      51776.8 1.3574939e+09 1.095912e-05 
     400 9.360345e+24    1424832.3            0    3916586.2 1.515787e+11 1.095912e-05 
     500 1.5061005e+26    9852563.3            0     49945442 2.4389353e+12 1.095912e-05 
     600 6.4706692e+26     16264583            0 1.8851587e+08 8.1528181e+12 1.4085215e-05 
     700 1.5623867e+27    9800198.1            0 4.2571254e+08 1.113616e+13 2.4898609e-05 
     800 2.0451806e+27    8410969.5            0 5.528446e+08 1.0723351e+13 3.3847231e-05 
     900 2.0949617e+27    5884971.7            0 5.6357048e+08 7.803653e+12 4.7643115e-05 
    1000 2.0985686e+27    3082735.9            0 5.6172843e+08 6.0250179e+12 6.1814001e-05 
Loop time of 21.0845 on 1 procs for 1000 steps with 12855 atoms

94.9% CPU use with 1 MPI tasks x 1 OpenMP threads

MPI task timing breakdown:
Section |  min time  |  avg time  |  max time  |%varavg| %total
---------------------------------------------------------------
Pair    | 19.682     | 19.682     | 19.682     |   0.0 | 93.35
Neigh   | 0.20182    | 0.20182    | 0.20182    |   0.0 |  0.96
Comm    | 0.005451   | 0.005451   | 0.005451   |   0.0 |  0.03
Output  | 0.045526   | 0.045526   | 0.045526   |   0.0 |  0.22
Modify  | 0.88921    | 0.88921    | 0.88921    |   0.0 |  4.22
Other   |            | 0.2602     |            |       |  1.23

Nlocal:    12855 ave 12855 max 12855 min
Histogram: 1 0 0 0 0 0 0 0 0 0
Nghost:    0 ave 0 max 0 min
Histogram: 1 0 0 0 0 0 0 0 0 0
Neighs:    333612 ave 333612 max 333612 min
Histogram: 1 0 0 0 0 0 0 0 0 0
FullNghs:  674306 ave 674306 max 674306 min
Histogram: 1 0 0 0 0 0 0 0 0 0

Total # of neighbors = 674306
Ave neighs/atom = 52.4548
Neighbor list builds = 15
Dangerous builds = 0

# SAVE INDENTER
print $x file Data/indenter_${count}.txt
print 0.000343008863756191 file Data/indenter_${count}.txt
print 0.000343008863756191 file Data/indenter_27.txt
0.000343008863756191
print $z append Data/indenter_${count}.txt
print -0.00105567273308762 append Data/indenter_${count}.txt
print -0.00105567273308762 append Data/indenter_27.txt
-0.00105567273308762
print $w append Data/indenter_${count}.txt
print 0.003 append Data/indenter_${count}.txt
print 0.003 append Data/indenter_27.txt
0.003
print $q append Data/indenter_${count}.txt
print 1.001 append Data/indenter_${count}.txt
print 1.001 append Data/indenter_27.txt
1.001

next j
next count
jump SELF start_of_loop_4
variable j loop ${jmax}
variable j loop 15
clear
WARNING: OMP_NUM_THREADS environment is not set. (../comm.cpp:90)
  using 1 OpenMP thread(s) per MPI task

# DEFINE INITIAL CONDITIONS
# small Peridynamic cylinder hit by projectile
units		si
boundary        s s s
dimension	3
atom_style      peri
atom_modify	map array
neighbor        0.0010 bin

# small target
lattice         sc 0.001
Lattice spacing in x,y,z = 0.001 0.001 0.001
region          target cylinder y 0.0 0.0 0.037 -0.0025 0.0 units box
create_box      1 target
Created orthogonal box = (-0.037 -0.0025 -0.037) to (0.037 0 0.037)
  1 by 1 by 1 MPI processor grid
create_atoms    1 region target
Created 12855 atoms

pair_style      peri/pmb
pair_coeff      * * 1.6863e22 0.0015001 0.0005 0.25
set             group all density 2200
  12855 settings made for density
set             group all volume 1.25e-10
  12855 settings made for volume
velocity        all set 0.0 0.0 0.0 sum no units box
fix             1 all nve
fix             2 all indent 1e16 sphere v_x v_y v_z v_w units box


print "Iteration:  i = $i , j = $j, k = $k, l = $l "
Iteration:  i = 3 , j = 13, k = 1, l = 1 

print " "
 
print " "
 
print "----------------------------------------------------------------"
----------------------------------------------------------------
print "Iteration ${count} of ${countmax}"
Iteration 28 of 2325
print "----------------------------------------------------------------"
----------------------------------------------------------------
print " "
 

# Reset current timestep
reset_timestep 0

# spherical indenter to shatter target

#q is velocity for indent.txt
variable         q equal "1+(0.001*v_l)"

# indenter radius (w) for indent.txt
variable         w equal "0.0020+(0.001*v_k)"

#disk radius(v_r)
variable r equal 0.037

variable        y0 equal 0.00510
variable        vy equal -100
variable        y equal "v_y0 + v_q*step*dt*v_vy"

#Hit the whole disk
#variable        x equal "cos((PI/2)*v_i/v_imax)*((v_i-1)/v_imax*v_r)"
#variable        z equal "sin((PI/2)*v_j/v_jmax)*((v_j-1)/v_jmax*v_r)"

#Hit the disk reduced 5times compare to disk size
variable        x equal "cos((2*PI)*v_j/v_jmax)*(v_i/v_imax)*v_r*(0.3)"
variable        z equal "sin((2*PI)*v_j/v_jmax)*(v_i/v_imax)*v_r*(0.3)"

compute         1 all damage/atom
timestep        1.0e-7
thermo          100

dump            ${count} all custom 1000 Data/dump_${count}.peri id type x y z c_1
dump            28 all custom 1000 Data/dump_${count}.peri id type x y z c_1
dump            28 all custom 1000 Data/dump_28.peri id type x y z c_1

run             1000
Neighbor list info ...
  2 neighbor list requests
  update every 1 steps, delay 10 steps, check yes
  max neighbors/atom: 2000, page size: 100000
  master list distance cutoff = 0.0025001
  ghost atom cutoff = 0.0025001
  binsize = 0.00125005 -> bins = 60 3 60
Peridynamic bonds:
  total # of bonds = 185180
  bonds/atom = 14.4053
Memory usage per processor = 9.32606 Mbytes
Step Temp E_pair E_mol TotEng Press Volume 
       0            0            0            0            0            0 1.095912e-05 
     100            0            0            0            0            0 1.095912e-05 
     200            0            0            0            0            0 1.095912e-05 
     300 8.3874822e+22    29434.072            0    51761.818 1.3582446e+09 1.095912e-05 
     400 9.416275e+24    1425633.1            0    3932275.7 1.5248442e+11 1.095912e-05 
     500 1.5170052e+26    9451681.7            0     49834846 2.456594e+12 1.095912e-05 
     600 6.3425902e+26     18487224            0 1.8732901e+08 8.0499091e+12 1.3982914e-05 
     700 1.5391279e+27      8651118            0 4.183719e+08 1.0420187e+13 2.6213271e-05 
     800 2.0407418e+27      5386036            0 5.4863803e+08 9.3413396e+12 3.8770456e-05 
     900 2.0885808e+27    5307116.3            0 5.6129403e+08 6.3597747e+12 5.8281615e-05 
    1000 2.0862844e+27    4321929.2            0 5.5969753e+08 5.0195711e+12 7.3761361e-05 
Loop time of 21.3144 on 1 procs for 1000 steps with 12855 atoms

94.7% CPU use with 1 MPI tasks x 1 OpenMP threads

MPI task timing breakdown:
Section |  min time  |  avg time  |  max time  |%varavg| %total
---------------------------------------------------------------
Pair    | 19.766     | 19.766     | 19.766     |   0.0 | 92.74
Neigh   | 0.2499     | 0.2499     | 0.2499     |   0.0 |  1.17
Comm    | 0.0060015  | 0.0060015  | 0.0060015  |   0.0 |  0.03
Output  | 0.038241   | 0.038241   | 0.038241   |   0.0 |  0.18
Modify  | 0.9618     | 0.9618     | 0.9618     |   0.0 |  4.51
Other   |            | 0.2924     |            |       |  1.37

Nlocal:    12855 ave 12855 max 12855 min
Histogram: 1 0 0 0 0 0 0 0 0 0
Nghost:    0 ave 0 max 0 min
Histogram: 1 0 0 0 0 0 0 0 0 0
Neighs:    333603 ave 333603 max 333603 min
Histogram: 1 0 0 0 0 0 0 0 0 0
FullNghs:  674306 ave 674306 max 674306 min
Histogram: 1 0 0 0 0 0 0 0 0 0

Total # of neighbors = 674306
Ave neighs/atom = 52.4548
Neighbor list builds = 16
Dangerous builds = 0

# SAVE INDENTER
print $x file Data/indenter_${count}.txt
print 0.000742734973058333 file Data/indenter_${count}.txt
print 0.000742734973058333 file Data/indenter_28.txt
0.000742734973058333
print $z append Data/indenter_${count}.txt
print -0.000824890756279907 append Data/indenter_${count}.txt
print -0.000824890756279907 append Data/indenter_28.txt
-0.000824890756279907
print $w append Data/indenter_${count}.txt
print 0.003 append Data/indenter_${count}.txt
print 0.003 append Data/indenter_28.txt
0.003
print $q append Data/indenter_${count}.txt
print 1.001 append Data/indenter_${count}.txt
print 1.001 append Data/indenter_28.txt
1.001

next j
next count
jump SELF start_of_loop_4
variable j loop ${jmax}
variable j loop 15
clear
WARNING: OMP_NUM_THREADS environment is not set. (../comm.cpp:90)
  using 1 OpenMP thread(s) per MPI task

# DEFINE INITIAL CONDITIONS
# small Peridynamic cylinder hit by projectile
units		si
boundary        s s s
dimension	3
atom_style      peri
atom_modify	map array
neighbor        0.0010 bin

# small target
lattice         sc 0.001
Lattice spacing in x,y,z = 0.001 0.001 0.001
region          target cylinder y 0.0 0.0 0.037 -0.0025 0.0 units box
create_box      1 target
Created orthogonal box = (-0.037 -0.0025 -0.037) to (0.037 0 0.037)
  1 by 1 by 1 MPI processor grid
create_atoms    1 region target
Created 12855 atoms

pair_style      peri/pmb
pair_coeff      * * 1.6863e22 0.0015001 0.0005 0.25
set             group all density 2200
  12855 settings made for density
set             group all volume 1.25e-10
  12855 settings made for volume
velocity        all set 0.0 0.0 0.0 sum no units box
fix             1 all nve
fix             2 all indent 1e16 sphere v_x v_y v_z v_w units box


print "Iteration:  i = $i , j = $j, k = $k, l = $l "
Iteration:  i = 3 , j = 14, k = 1, l = 1 

print " "
 
print " "
 
print "----------------------------------------------------------------"
----------------------------------------------------------------
print "Iteration ${count} of ${countmax}"
Iteration 29 of 2325
print "----------------------------------------------------------------"
----------------------------------------------------------------
print " "
 

# Reset current timestep
reset_timestep 0

# spherical indenter to shatter target

#q is velocity for indent.txt
variable         q equal "1+(0.001*v_l)"

# indenter radius (w) for indent.txt
variable         w equal "0.0020+(0.001*v_k)"

#disk radius(v_r)
variable r equal 0.037

variable        y0 equal 0.00510
variable        vy equal -100
variable        y equal "v_y0 + v_q*step*dt*v_vy"

#Hit the whole disk
#variable        x equal "cos((PI/2)*v_i/v_imax)*((v_i-1)/v_imax*v_r)"
#variable        z equal "sin((PI/2)*v_j/v_jmax)*((v_j-1)/v_jmax*v_r)"

#Hit the disk reduced 5times compare to disk size
variable        x equal "cos((2*PI)*v_j/v_jmax)*(v_i/v_imax)*v_r*(0.3)"
variable        z equal "sin((2*PI)*v_j/v_jmax)*(v_i/v_imax)*v_r*(0.3)"

compute         1 all damage/atom
timestep        1.0e-7
thermo          100

dump            ${count} all custom 1000 Data/dump_${count}.peri id type x y z c_1
dump            29 all custom 1000 Data/dump_${count}.peri id type x y z c_1
dump            29 all custom 1000 Data/dump_29.peri id type x y z c_1

run             1000
Neighbor list info ...
  2 neighbor list requests
  update every 1 steps, delay 10 steps, check yes
  max neighbors/atom: 2000, page size: 100000
  master list distance cutoff = 0.0025001
  ghost atom cutoff = 0.0025001
  binsize = 0.00125005 -> bins = 60 3 60
Peridynamic bonds:
  total # of bonds = 185180
  bonds/atom = 14.4053
Memory usage per processor = 9.32606 Mbytes
Step Temp E_pair E_mol TotEng Press Volume 
       0            0            0            0            0            0 1.095912e-05 
     100            0            0            0            0            0 1.095912e-05 
     200            0            0            0            0            0 1.095912e-05 
     300 8.3585762e+22    29505.687            0    51756.484 1.3535637e+09 1.095912e-05 
     400 9.3179281e+24    1422376.5            0    3902838.8 1.5089182e+11 1.095912e-05 
     500 1.4968217e+26    9650952.7            0     49496827 2.4239096e+12 1.095912e-05 
     600 6.6233211e+26     15487853            0 1.9180278e+08 8.288103e+12 1.418217e-05 
     700 1.5894257e+27     10466610            0 4.3357683e+08 1.1212378e+13 2.515733e-05 
     800 2.073765e+27    6643352.6            0 5.5868624e+08 1.0374306e+13 3.5475009e-05 
     900 2.1221685e+27    4914703.4            0 5.6984275e+08 7.294963e+12 5.1627225e-05 
    1000 2.1179301e+27    4261406.3            0 5.6806118e+08 5.8995797e+12 6.3710728e-05 
Loop time of 21.0435 on 1 procs for 1000 steps with 12855 atoms

95.7% CPU use with 1 MPI tasks x 1 OpenMP threads

MPI task timing breakdown:
Section |  min time  |  avg time  |  max time  |%varavg| %total
---------------------------------------------------------------
Pair    | 19.569     | 19.569     | 19.569     |   0.0 | 92.99
Neigh   | 0.19323    | 0.19323    | 0.19323    |   0.0 |  0.92
Comm    | 0.00544    | 0.00544    | 0.00544    |   0.0 |  0.03
Output  | 0.037958   | 0.037958   | 0.037958   |   0.0 |  0.18
Modify  | 0.94379    | 0.94379    | 0.94379    |   0.0 |  4.48
Other   |            | 0.2939     |            |       |  1.40

Nlocal:    12855 ave 12855 max 12855 min
Histogram: 1 0 0 0 0 0 0 0 0 0
Nghost:    0 ave 0 max 0 min
Histogram: 1 0 0 0 0 0 0 0 0 0
Neighs:    333413 ave 333413 max 333413 min
Histogram: 1 0 0 0 0 0 0 0 0 0
FullNghs:  674306 ave 674306 max 674306 min
Histogram: 1 0 0 0 0 0 0 0 0 0

Total # of neighbors = 674306
Ave neighs/atom = 52.4548
Neighbor list builds = 14
Dangerous builds = 0

# SAVE INDENTER
print $x file Data/indenter_${count}.txt
print 0.00101403545798329 file Data/indenter_${count}.txt
print 0.00101403545798329 file Data/indenter_29.txt
0.00101403545798329
print $z append Data/indenter_${count}.txt
print -0.000451477673814138 append Data/indenter_${count}.txt
print -0.000451477673814138 append Data/indenter_29.txt
-0.000451477673814138
print $w append Data/indenter_${count}.txt
print 0.003 append Data/indenter_${count}.txt
print 0.003 append Data/indenter_29.txt
0.003
print $q append Data/indenter_${count}.txt
print 1.001 append Data/indenter_${count}.txt
print 1.001 append Data/indenter_29.txt
1.001

next j
next count
jump SELF start_of_loop_4
variable j loop ${jmax}
variable j loop 15
clear
WARNING: OMP_NUM_THREADS environment is not set. (../comm.cpp:90)
  using 1 OpenMP thread(s) per MPI task

# DEFINE INITIAL CONDITIONS
# small Peridynamic cylinder hit by projectile
units		si
boundary        s s s
dimension	3
atom_style      peri
atom_modify	map array
neighbor        0.0010 bin

# small target
lattice         sc 0.001
Lattice spacing in x,y,z = 0.001 0.001 0.001
region          target cylinder y 0.0 0.0 0.037 -0.0025 0.0 units box
create_box      1 target
Created orthogonal box = (-0.037 -0.0025 -0.037) to (0.037 0 0.037)
  1 by 1 by 1 MPI processor grid
create_atoms    1 region target
Created 12855 atoms

pair_style      peri/pmb
pair_coeff      * * 1.6863e22 0.0015001 0.0005 0.25
set             group all density 2200
  12855 settings made for density
set             group all volume 1.25e-10
  12855 settings made for volume
velocity        all set 0.0 0.0 0.0 sum no units box
fix             1 all nve
fix             2 all indent 1e16 sphere v_x v_y v_z v_w units box


print "Iteration:  i = $i , j = $j, k = $k, l = $l "
Iteration:  i = 3 , j = 15, k = 1, l = 1 

print " "
 
print " "
 
print "----------------------------------------------------------------"
----------------------------------------------------------------
print "Iteration ${count} of ${countmax}"
Iteration 30 of 2325
print "----------------------------------------------------------------"
----------------------------------------------------------------
print " "
 

# Reset current timestep
reset_timestep 0

# spherical indenter to shatter target

#q is velocity for indent.txt
variable         q equal "1+(0.001*v_l)"

# indenter radius (w) for indent.txt
variable         w equal "0.0020+(0.001*v_k)"

#disk radius(v_r)
variable r equal 0.037

variable        y0 equal 0.00510
variable        vy equal -100
variable        y equal "v_y0 + v_q*step*dt*v_vy"

#Hit the whole disk
#variable        x equal "cos((PI/2)*v_i/v_imax)*((v_i-1)/v_imax*v_r)"
#variable        z equal "sin((PI/2)*v_j/v_jmax)*((v_j-1)/v_jmax*v_r)"

#Hit the disk reduced 5times compare to disk size
variable        x equal "cos((2*PI)*v_j/v_jmax)*(v_i/v_imax)*v_r*(0.3)"
variable        z equal "sin((2*PI)*v_j/v_jmax)*(v_i/v_imax)*v_r*(0.3)"

compute         1 all damage/atom
timestep        1.0e-7
thermo          100

dump            ${count} all custom 1000 Data/dump_${count}.peri id type x y z c_1
dump            30 all custom 1000 Data/dump_${count}.peri id type x y z c_1
dump            30 all custom 1000 Data/dump_30.peri id type x y z c_1

run             1000
Neighbor list info ...
  2 neighbor list requests
  update every 1 steps, delay 10 steps, check yes
  max neighbors/atom: 2000, page size: 100000
  master list distance cutoff = 0.0025001
  ghost atom cutoff = 0.0025001
  binsize = 0.00125005 -> bins = 60 3 60
Peridynamic bonds:
  total # of bonds = 185180
  bonds/atom = 14.4053
Memory usage per processor = 9.32606 Mbytes
Step Temp E_pair E_mol TotEng Press Volume 
       0            0            0            0            0            0 1.095912e-05 
     100            0            0            0            0            0 1.095912e-05 
     200            0            0            0            0            0 1.095912e-05 
     300 8.4784326e+22    29294.379            0    51864.238 1.3729728e+09 1.095912e-05 
     400 9.5396907e+24    1303929.3            0    3843425.5 1.5448298e+11 1.095912e-05 
     500 1.5942355e+26    9206715.1            0     51645775 2.5816586e+12 1.095912e-05 
     600 7.2962529e+26     15469294            0 2.0969788e+08 9.4087444e+12 1.3762275e-05 
     700 1.644521e+27     12830320            0 4.5060707e+08 1.1887083e+13 2.4551959e-05 
     800 2.0938745e+27    4074521.6            0 5.6147061e+08 9.8408657e+12 3.7760641e-05 
     900 2.1200198e+27    6496041.7            0 5.7085211e+08 6.8884825e+12 5.4618326e-05 
    1000 2.1237535e+27    3913588.5            0 5.6926356e+08 5.4282552e+12 6.9432989e-05 
Loop time of 21.2988 on 1 procs for 1000 steps with 12855 atoms

94.6% CPU use with 1 MPI tasks x 1 OpenMP threads

MPI task timing breakdown:
Section |  min time  |  avg time  |  max time  |%varavg| %total
---------------------------------------------------------------
Pair    | 19.81      | 19.81      | 19.81      |   0.0 | 93.01
Neigh   | 0.22517    | 0.22517    | 0.22517    |   0.0 |  1.06
Comm    | 0.0059633  | 0.0059633  | 0.0059633  |   0.0 |  0.03
Output  | 0.03944    | 0.03944    | 0.03944    |   0.0 |  0.19
Modify  | 0.91633    | 0.91633    | 0.91633    |   0.0 |  4.30
Other   |            | 0.3022     |            |       |  1.42

Nlocal:    12855 ave 12855 max 12855 min
Histogram: 1 0 0 0 0 0 0 0 0 0
Nghost:    0 ave 0 max 0 min
Histogram: 1 0 0 0 0 0 0 0 0 0
Neighs:    333336 ave 333336 max 333336 min
Histogram: 1 0 0 0 0 0 0 0 0 0
FullNghs:  674306 ave 674306 max 674306 min
Histogram: 1 0 0 0 0 0 0 0 0 0

Total # of neighbors = 674306
Ave neighs/atom = 52.4548
Neighbor list builds = 17
Dangerous builds = 0

# SAVE INDENTER
print $x file Data/indenter_${count}.txt
print 0.00111 file Data/indenter_${count}.txt
print 0.00111 file Data/indenter_30.txt
0.00111
print $z append Data/indenter_${count}.txt
print -1.25774963527785e-18 append Data/indenter_${count}.txt
print -1.25774963527785e-18 append Data/indenter_30.txt
-1.25774963527785e-18
print $w append Data/indenter_${count}.txt
print 0.003 append Data/indenter_${count}.txt
print 0.003 append Data/indenter_30.txt
0.003
print $q append Data/indenter_${count}.txt
print 1.001 append Data/indenter_${count}.txt
print 1.001 append Data/indenter_30.txt
1.001

next j
next count
jump SELF start_of_loop_4

next i
jump SELF start_of_loop_3
variable i loop ${imax}
variable i loop 30

variable jmax equal "5*v_i"

print "imax = ${imax}"
imax = 30
print "jmax = ${jmax}"
jmax = 20

# Loop 4
label start_of_loop_4
variable j loop ${jmax}
variable j loop 20
clear
WARNING: OMP_NUM_THREADS environment is not set. (../comm.cpp:90)
  using 1 OpenMP thread(s) per MPI task

# DEFINE INITIAL CONDITIONS
# small Peridynamic cylinder hit by projectile
units		si
boundary        s s s
dimension	3
atom_style      peri
atom_modify	map array
neighbor        0.0010 bin

# small target
lattice         sc 0.001
Lattice spacing in x,y,z = 0.001 0.001 0.001
region          target cylinder y 0.0 0.0 0.037 -0.0025 0.0 units box
create_box      1 target
Created orthogonal box = (-0.037 -0.0025 -0.037) to (0.037 0 0.037)
  1 by 1 by 1 MPI processor grid
create_atoms    1 region target
Created 12855 atoms

pair_style      peri/pmb
pair_coeff      * * 1.6863e22 0.0015001 0.0005 0.25
set             group all density 2200
  12855 settings made for density
set             group all volume 1.25e-10
  12855 settings made for volume
velocity        all set 0.0 0.0 0.0 sum no units box
fix             1 all nve
fix             2 all indent 1e16 sphere v_x v_y v_z v_w units box


print "Iteration:  i = $i , j = $j, k = $k, l = $l "
Iteration:  i = 4 , j = 1, k = 1, l = 1 

print " "
 
print " "
 
print "----------------------------------------------------------------"
----------------------------------------------------------------
print "Iteration ${count} of ${countmax}"
Iteration 31 of 2325
print "----------------------------------------------------------------"
----------------------------------------------------------------
print " "
 

# Reset current timestep
reset_timestep 0

# spherical indenter to shatter target

#q is velocity for indent.txt
variable         q equal "1+(0.001*v_l)"

# indenter radius (w) for indent.txt
variable         w equal "0.0020+(0.001*v_k)"

#disk radius(v_r)
variable r equal 0.037

variable        y0 equal 0.00510
variable        vy equal -100
variable        y equal "v_y0 + v_q*step*dt*v_vy"

#Hit the whole disk
#variable        x equal "cos((PI/2)*v_i/v_imax)*((v_i-1)/v_imax*v_r)"
#variable        z equal "sin((PI/2)*v_j/v_jmax)*((v_j-1)/v_jmax*v_r)"

#Hit the disk reduced 5times compare to disk size
variable        x equal "cos((2*PI)*v_j/v_jmax)*(v_i/v_imax)*v_r*(0.3)"
variable        z equal "sin((2*PI)*v_j/v_jmax)*(v_i/v_imax)*v_r*(0.3)"

compute         1 all damage/atom
timestep        1.0e-7
thermo          100

dump            ${count} all custom 1000 Data/dump_${count}.peri id type x y z c_1
dump            31 all custom 1000 Data/dump_${count}.peri id type x y z c_1
dump            31 all custom 1000 Data/dump_31.peri id type x y z c_1

run             1000
Neighbor list info ...
  2 neighbor list requests
  update every 1 steps, delay 10 steps, check yes
  max neighbors/atom: 2000, page size: 100000
  master list distance cutoff = 0.0025001
  ghost atom cutoff = 0.0025001
  binsize = 0.00125005 -> bins = 60 3 60
Peridynamic bonds:
  total # of bonds = 185180
  bonds/atom = 14.4053
Memory usage per processor = 9.32606 Mbytes
Step Temp E_pair E_mol TotEng Press Volume 
       0            0            0            0            0            0 1.095912e-05 
     100            0            0            0            0            0 1.095912e-05 
     200            0            0            0            0            0 1.095912e-05 
     300 8.2658744e+22    29558.397            0    51562.419 1.3385518e+09 1.095912e-05 
     400 9.4975781e+24    1515100.2            0      4043386 1.5380102e+11 1.095912e-05 
     500 1.4978413e+26    8761455.7            0     48634472 2.4255607e+12 1.095912e-05 
     600 6.2120724e+26     15295529            0 1.8066289e+08 7.8181601e+12 1.4101132e-05 
     700 1.5091353e+27     10753069            0 4.1248973e+08 1.2340763e+13 2.1702422e-05 
     800 2.0572458e+27    4469682.6            0 5.521151e+08 1.0963901e+13 3.3299914e-05 
     900 2.115618e+27    4214619.1            0 5.6739892e+08 7.9041381e+12 4.750122e-05 
    1000 2.1171083e+27    3554737.5            0 5.6713575e+08 6.1536985e+12 6.1056074e-05 
Loop time of 21.2226 on 1 procs for 1000 steps with 12855 atoms

95.2% CPU use with 1 MPI tasks x 1 OpenMP threads

MPI task timing breakdown:
Section |  min time  |  avg time  |  max time  |%varavg| %total
---------------------------------------------------------------
Pair    | 19.731     | 19.731     | 19.731     |   0.0 | 92.97
Neigh   | 0.18599    | 0.18599    | 0.18599    |   0.0 |  0.88
Comm    | 0.0060089  | 0.0060089  | 0.0060089  |   0.0 |  0.03
Output  | 0.042381   | 0.042381   | 0.042381   |   0.0 |  0.20
Modify  | 0.94911    | 0.94911    | 0.94911    |   0.0 |  4.47
Other   |            | 0.3077     |            |       |  1.45

Nlocal:    12855 ave 12855 max 12855 min
Histogram: 1 0 0 0 0 0 0 0 0 0
Nghost:    0 ave 0 max 0 min
Histogram: 1 0 0 0 0 0 0 0 0 0
Neighs:    333594 ave 333594 max 333594 min
Histogram: 1 0 0 0 0 0 0 0 0 0
FullNghs:  674306 ave 674306 max 674306 min
Histogram: 1 0 0 0 0 0 0 0 0 0

Total # of neighbors = 674306
Ave neighs/atom = 52.4548
Neighbor list builds = 14
Dangerous builds = 0

# SAVE INDENTER
print $x file Data/indenter_${count}.txt
print 0.00140756364411683 file Data/indenter_${count}.txt
print 0.00140756364411683 file Data/indenter_31.txt
0.00140756364411683
print $z append Data/indenter_${count}.txt
print 0.000457345151674922 append Data/indenter_${count}.txt
print 0.000457345151674922 append Data/indenter_31.txt
0.000457345151674922
print $w append Data/indenter_${count}.txt
print 0.003 append Data/indenter_${count}.txt
print 0.003 append Data/indenter_31.txt
0.003
print $q append Data/indenter_${count}.txt
print 1.001 append Data/indenter_${count}.txt
print 1.001 append Data/indenter_31.txt
1.001

next j
next count
jump SELF start_of_loop_4
variable j loop ${jmax}
variable j loop 20
clear
WARNING: OMP_NUM_THREADS environment is not set. (../comm.cpp:90)
  using 1 OpenMP thread(s) per MPI task

# DEFINE INITIAL CONDITIONS
# small Peridynamic cylinder hit by projectile
units		si
boundary        s s s
dimension	3
atom_style      peri
atom_modify	map array
neighbor        0.0010 bin

# small target
lattice         sc 0.001
Lattice spacing in x,y,z = 0.001 0.001 0.001
region          target cylinder y 0.0 0.0 0.037 -0.0025 0.0 units box
create_box      1 target
Created orthogonal box = (-0.037 -0.0025 -0.037) to (0.037 0 0.037)
  1 by 1 by 1 MPI processor grid
create_atoms    1 region target
Created 12855 atoms

pair_style      peri/pmb
pair_coeff      * * 1.6863e22 0.0015001 0.0005 0.25
set             group all density 2200
  12855 settings made for density
set             group all volume 1.25e-10
  12855 settings made for volume
velocity        all set 0.0 0.0 0.0 sum no units box
fix             1 all nve
fix             2 all indent 1e16 sphere v_x v_y v_z v_w units box


print "Iteration:  i = $i , j = $j, k = $k, l = $l "
Iteration:  i = 4 , j = 2, k = 1, l = 1 

print " "
 
print " "
 
print "----------------------------------------------------------------"
----------------------------------------------------------------
print "Iteration ${count} of ${countmax}"
Iteration 32 of 2325
print "----------------------------------------------------------------"
----------------------------------------------------------------
print " "
 

# Reset current timestep
reset_timestep 0

# spherical indenter to shatter target

#q is velocity for indent.txt
variable         q equal "1+(0.001*v_l)"

# indenter radius (w) for indent.txt
variable         w equal "0.0020+(0.001*v_k)"

#disk radius(v_r)
variable r equal 0.037

variable        y0 equal 0.00510
variable        vy equal -100
variable        y equal "v_y0 + v_q*step*dt*v_vy"

#Hit the whole disk
#variable        x equal "cos((PI/2)*v_i/v_imax)*((v_i-1)/v_imax*v_r)"
#variable        z equal "sin((PI/2)*v_j/v_jmax)*((v_j-1)/v_jmax*v_r)"

#Hit the disk reduced 5times compare to disk size
variable        x equal "cos((2*PI)*v_j/v_jmax)*(v_i/v_imax)*v_r*(0.3)"
variable        z equal "sin((2*PI)*v_j/v_jmax)*(v_i/v_imax)*v_r*(0.3)"

compute         1 all damage/atom
timestep        1.0e-7
thermo          100

dump            ${count} all custom 1000 Data/dump_${count}.peri id type x y z c_1
dump            32 all custom 1000 Data/dump_${count}.peri id type x y z c_1
dump            32 all custom 1000 Data/dump_32.peri id type x y z c_1

run             1000
Neighbor list info ...
  2 neighbor list requests
  update every 1 steps, delay 10 steps, check yes
  max neighbors/atom: 2000, page size: 100000
  master list distance cutoff = 0.0025001
  ghost atom cutoff = 0.0025001
  binsize = 0.00125005 -> bins = 60 3 60
Peridynamic bonds:
  total # of bonds = 185180
  bonds/atom = 14.4053
Memory usage per processor = 9.32606 Mbytes
Step Temp E_pair E_mol TotEng Press Volume 
       0            0            0            0            0            0 1.095912e-05 
     100            0            0            0            0            0 1.095912e-05 
     200            0            0            0            0            0 1.095912e-05 
     300 8.4271565e+22    29377.398            0    51810.758 1.3646693e+09 1.095912e-05 
     400 9.4426908e+24    1396373.7            0    3910048.2 1.5291219e+11 1.095912e-05 
     500 1.5325984e+26    9729697.9            0     50527958 2.4818452e+12 1.095912e-05 
     600 6.6284182e+26     18559079            0 1.9500969e+08 8.4604508e+12 1.3903957e-05 
     700 1.5744274e+27    9956903.8            0 4.2907452e+08 1.1442801e+13 2.4418126e-05 
     800 2.0437246e+27    5813586.7            0 5.4985961e+08 9.2726878e+12 3.9114587e-05 
     900 2.0862806e+27    4415156.7            0 5.5978974e+08 6.8733914e+12 5.3867109e-05 
    1000 2.0839352e+27    3242494.2            0 5.5799273e+08 5.1143096e+12 7.2313474e-05 
Loop time of 21.084 on 1 procs for 1000 steps with 12855 atoms

95.4% CPU use with 1 MPI tasks x 1 OpenMP threads

MPI task timing breakdown:
Section |  min time  |  avg time  |  max time  |%varavg| %total
---------------------------------------------------------------
Pair    | 19.587     | 19.587     | 19.587     |   0.0 | 92.90
Neigh   | 0.2468     | 0.2468     | 0.2468     |   0.0 |  1.17
Comm    | 0.010296   | 0.010296   | 0.010296   |   0.0 |  0.05
Output  | 0.035836   | 0.035836   | 0.035836   |   0.0 |  0.17
Modify  | 0.92239    | 0.92239    | 0.92239    |   0.0 |  4.37
Other   |            | 0.2812     |            |       |  1.33

Nlocal:    12855 ave 12855 max 12855 min
Histogram: 1 0 0 0 0 0 0 0 0 0
Nghost:    0 ave 0 max 0 min
Histogram: 1 0 0 0 0 0 0 0 0 0
Neighs:    333501 ave 333501 max 333501 min
Histogram: 1 0 0 0 0 0 0 0 0 0
FullNghs:  674306 ave 674306 max 674306 min
Histogram: 1 0 0 0 0 0 0 0 0 0

Total # of neighbors = 674306
Ave neighs/atom = 52.4548
Neighbor list builds = 17
Dangerous builds = 0

# SAVE INDENTER
print $x file Data/indenter_${count}.txt
print 0.00119734515167492 file Data/indenter_${count}.txt
print 0.00119734515167492 file Data/indenter_32.txt
0.00119734515167492
print $z append Data/indenter_${count}.txt
print 0.00086992217339286 append Data/indenter_${count}.txt
print 0.00086992217339286 append Data/indenter_32.txt
0.00086992217339286
print $w append Data/indenter_${count}.txt
print 0.003 append Data/indenter_${count}.txt
print 0.003 append Data/indenter_32.txt
0.003
print $q append Data/indenter_${count}.txt
print 1.001 append Data/indenter_${count}.txt
print 1.001 append Data/indenter_32.txt
1.001

next j
next count
jump SELF start_of_loop_4
variable j loop ${jmax}
variable j loop 20
clear
WARNING: OMP_NUM_THREADS environment is not set. (../comm.cpp:90)
  using 1 OpenMP thread(s) per MPI task

# DEFINE INITIAL CONDITIONS
# small Peridynamic cylinder hit by projectile
units		si
boundary        s s s
dimension	3
atom_style      peri
atom_modify	map array
neighbor        0.0010 bin

# small target
lattice         sc 0.001
Lattice spacing in x,y,z = 0.001 0.001 0.001
region          target cylinder y 0.0 0.0 0.037 -0.0025 0.0 units box
create_box      1 target
Created orthogonal box = (-0.037 -0.0025 -0.037) to (0.037 0 0.037)
  1 by 1 by 1 MPI processor grid
create_atoms    1 region target
Created 12855 atoms

pair_style      peri/pmb
pair_coeff      * * 1.6863e22 0.0015001 0.0005 0.25
set             group all density 2200
  12855 settings made for density
set             group all volume 1.25e-10
  12855 settings made for volume
velocity        all set 0.0 0.0 0.0 sum no units box
fix             1 all nve
fix             2 all indent 1e16 sphere v_x v_y v_z v_w units box


print "Iteration:  i = $i , j = $j, k = $k, l = $l "
Iteration:  i = 4 , j = 3, k = 1, l = 1 

print " "
 
print " "
 
print "----------------------------------------------------------------"
----------------------------------------------------------------
print "Iteration ${count} of ${countmax}"
Iteration 33 of 2325
print "----------------------------------------------------------------"
----------------------------------------------------------------
print " "
 

# Reset current timestep
reset_timestep 0

# spherical indenter to shatter target

#q is velocity for indent.txt
variable         q equal "1+(0.001*v_l)"

# indenter radius (w) for indent.txt
variable         w equal "0.0020+(0.001*v_k)"

#disk radius(v_r)
variable r equal 0.037

variable        y0 equal 0.00510
variable        vy equal -100
variable        y equal "v_y0 + v_q*step*dt*v_vy"

#Hit the whole disk
#variable        x equal "cos((PI/2)*v_i/v_imax)*((v_i-1)/v_imax*v_r)"
#variable        z equal "sin((PI/2)*v_j/v_jmax)*((v_j-1)/v_jmax*v_r)"

#Hit the disk reduced 5times compare to disk size
variable        x equal "cos((2*PI)*v_j/v_jmax)*(v_i/v_imax)*v_r*(0.3)"
variable        z equal "sin((2*PI)*v_j/v_jmax)*(v_i/v_imax)*v_r*(0.3)"

compute         1 all damage/atom
timestep        1.0e-7
thermo          100

dump            ${count} all custom 1000 Data/dump_${count}.peri id type x y z c_1
dump            33 all custom 1000 Data/dump_${count}.peri id type x y z c_1
dump            33 all custom 1000 Data/dump_33.peri id type x y z c_1

run             1000
Neighbor list info ...
  2 neighbor list requests
  update every 1 steps, delay 10 steps, check yes
  max neighbors/atom: 2000, page size: 100000
  master list distance cutoff = 0.0025001
  ghost atom cutoff = 0.0025001
  binsize = 0.00125005 -> bins = 60 3 60
Peridynamic bonds:
  total # of bonds = 185180
  bonds/atom = 14.4053
Memory usage per processor = 9.32606 Mbytes
Step Temp E_pair E_mol TotEng Press Volume 
       0            0            0            0            0            0 1.095912e-05 
     100            0            0            0            0            0 1.095912e-05 
     200            0            0            0            0            0 1.095912e-05 
     300 8.4271565e+22    29377.398            0    51810.758 1.3646693e+09 1.095912e-05 
     400 9.4426908e+24    1396373.7            0    3910048.2 1.5291219e+11 1.095912e-05 
     500 1.5325984e+26    9729697.9            0     50527958 2.4818452e+12 1.095912e-05 
     600 6.6284182e+26     18559079            0 1.9500969e+08 8.4604508e+12 1.3903957e-05 
     700 1.5744274e+27    9956903.8            0 4.2907452e+08 1.1442801e+13 2.4418126e-05 
     800 2.0437246e+27    5813586.7            0 5.4985961e+08 9.2726878e+12 3.9114587e-05 
     900 2.0862806e+27    4415156.7            0 5.5978974e+08 6.8733914e+12 5.3867109e-05 
    1000 2.0839352e+27    3242494.2            0 5.5799273e+08 5.1143096e+12 7.2313474e-05 
Loop time of 20.3937 on 1 procs for 1000 steps with 12855 atoms

96.9% CPU use with 1 MPI tasks x 1 OpenMP threads

MPI task timing breakdown:
Section |  min time  |  avg time  |  max time  |%varavg| %total
---------------------------------------------------------------
Pair    | 19.098     | 19.098     | 19.098     |   0.0 | 93.65
Neigh   | 0.22469    | 0.22469    | 0.22469    |   0.0 |  1.10
Comm    | 0.0092332  | 0.0092332  | 0.0092332  |   0.0 |  0.05
Output  | 0.039024   | 0.039024   | 0.039024   |   0.0 |  0.19
Modify  | 0.79295    | 0.79295    | 0.79295    |   0.0 |  3.89
Other   |            | 0.2299     |            |       |  1.13

Nlocal:    12855 ave 12855 max 12855 min
Histogram: 1 0 0 0 0 0 0 0 0 0
Nghost:    0 ave 0 max 0 min
Histogram: 1 0 0 0 0 0 0 0 0 0
Neighs:    333501 ave 333501 max 333501 min
Histogram: 1 0 0 0 0 0 0 0 0 0
FullNghs:  674306 ave 674306 max 674306 min
Histogram: 1 0 0 0 0 0 0 0 0 0

Total # of neighbors = 674306
Ave neighs/atom = 52.4548
Neighbor list builds = 17
Dangerous builds = 0

# SAVE INDENTER
print $x file Data/indenter_${count}.txt
print 0.00086992217339286 file Data/indenter_${count}.txt
print 0.00086992217339286 file Data/indenter_33.txt
0.00086992217339286
print $z append Data/indenter_${count}.txt
print 0.00119734515167492 append Data/indenter_${count}.txt
print 0.00119734515167492 append Data/indenter_33.txt
0.00119734515167492
print $w append Data/indenter_${count}.txt
print 0.003 append Data/indenter_${count}.txt
print 0.003 append Data/indenter_33.txt
0.003
print $q append Data/indenter_${count}.txt
print 1.001 append Data/indenter_${count}.txt
print 1.001 append Data/indenter_33.txt
1.001

next j
next count
jump SELF start_of_loop_4
variable j loop ${jmax}
variable j loop 20
clear
WARNING: OMP_NUM_THREADS environment is not set. (../comm.cpp:90)
  using 1 OpenMP thread(s) per MPI task

# DEFINE INITIAL CONDITIONS
# small Peridynamic cylinder hit by projectile
units		si
boundary        s s s
dimension	3
atom_style      peri
atom_modify	map array
neighbor        0.0010 bin

# small target
lattice         sc 0.001
Lattice spacing in x,y,z = 0.001 0.001 0.001
region          target cylinder y 0.0 0.0 0.037 -0.0025 0.0 units box
create_box      1 target
Created orthogonal box = (-0.037 -0.0025 -0.037) to (0.037 0 0.037)
  1 by 1 by 1 MPI processor grid
create_atoms    1 region target
Created 12855 atoms

pair_style      peri/pmb
pair_coeff      * * 1.6863e22 0.0015001 0.0005 0.25
set             group all density 2200
  12855 settings made for density
set             group all volume 1.25e-10
  12855 settings made for volume
velocity        all set 0.0 0.0 0.0 sum no units box
fix             1 all nve
fix             2 all indent 1e16 sphere v_x v_y v_z v_w units box


print "Iteration:  i = $i , j = $j, k = $k, l = $l "
Iteration:  i = 4 , j = 4, k = 1, l = 1 

print " "
 
print " "
 
print "----------------------------------------------------------------"
----------------------------------------------------------------
print "Iteration ${count} of ${countmax}"
Iteration 34 of 2325
print "----------------------------------------------------------------"
----------------------------------------------------------------
print " "
 

# Reset current timestep
reset_timestep 0

# spherical indenter to shatter target

#q is velocity for indent.txt
variable         q equal "1+(0.001*v_l)"

# indenter radius (w) for indent.txt
variable         w equal "0.0020+(0.001*v_k)"

#disk radius(v_r)
variable r equal 0.037

variable        y0 equal 0.00510
variable        vy equal -100
variable        y equal "v_y0 + v_q*step*dt*v_vy"

#Hit the whole disk
#variable        x equal "cos((PI/2)*v_i/v_imax)*((v_i-1)/v_imax*v_r)"
#variable        z equal "sin((PI/2)*v_j/v_jmax)*((v_j-1)/v_jmax*v_r)"

#Hit the disk reduced 5times compare to disk size
variable        x equal "cos((2*PI)*v_j/v_jmax)*(v_i/v_imax)*v_r*(0.3)"
variable        z equal "sin((2*PI)*v_j/v_jmax)*(v_i/v_imax)*v_r*(0.3)"

compute         1 all damage/atom
timestep        1.0e-7
thermo          100

dump            ${count} all custom 1000 Data/dump_${count}.peri id type x y z c_1
dump            34 all custom 1000 Data/dump_${count}.peri id type x y z c_1
dump            34 all custom 1000 Data/dump_34.peri id type x y z c_1

run             1000
Neighbor list info ...
  2 neighbor list requests
  update every 1 steps, delay 10 steps, check yes
  max neighbors/atom: 2000, page size: 100000
  master list distance cutoff = 0.0025001
  ghost atom cutoff = 0.0025001
  binsize = 0.00125005 -> bins = 60 3 60
Peridynamic bonds:
  total # of bonds = 185180
  bonds/atom = 14.4053
Memory usage per processor = 9.32606 Mbytes
Step Temp E_pair E_mol TotEng Press Volume 
       0            0            0            0            0            0 1.095912e-05 
     100            0            0            0            0            0 1.095912e-05 
     200            0            0            0            0            0 1.095912e-05 
     300 8.2658744e+22    29558.397            0    51562.419 1.3385518e+09 1.095912e-05 
     400 9.4975781e+24    1515100.2            0      4043386 1.5380102e+11 1.095912e-05 
     500 1.4978413e+26    8761455.7            0     48634472 2.4255607e+12 1.095912e-05 
     600 6.2120724e+26     15295529            0 1.8066289e+08 7.8181601e+12 1.4101132e-05 
     700 1.5091353e+27     10753069            0 4.1248973e+08 1.2340763e+13 2.1702422e-05 
     800 2.0572458e+27    4469682.6            0 5.521151e+08 1.0963901e+13 3.3299914e-05 
     900 2.115618e+27    4214619.1            0 5.6739892e+08 7.9041381e+12 4.750122e-05 
    1000 2.1171083e+27    3554737.5            0 5.6713575e+08 6.1536985e+12 6.1056074e-05 
Loop time of 20.1736 on 1 procs for 1000 steps with 12855 atoms

97.7% CPU use with 1 MPI tasks x 1 OpenMP threads

MPI task timing breakdown:
Section |  min time  |  avg time  |  max time  |%varavg| %total
---------------------------------------------------------------
Pair    | 18.974     | 18.974     | 18.974     |   0.0 | 94.05
Neigh   | 0.18063    | 0.18063    | 0.18063    |   0.0 |  0.90
Comm    | 0.0047424  | 0.0047424  | 0.0047424  |   0.0 |  0.02
Output  | 0.034606   | 0.034606   | 0.034606   |   0.0 |  0.17
Modify  | 0.75755    | 0.75755    | 0.75755    |   0.0 |  3.76
Other   |            | 0.222      |            |       |  1.10

Nlocal:    12855 ave 12855 max 12855 min
Histogram: 1 0 0 0 0 0 0 0 0 0
Nghost:    0 ave 0 max 0 min
Histogram: 1 0 0 0 0 0 0 0 0 0
Neighs:    333594 ave 333594 max 333594 min
Histogram: 1 0 0 0 0 0 0 0 0 0
FullNghs:  674306 ave 674306 max 674306 min
Histogram: 1 0 0 0 0 0 0 0 0 0

Total # of neighbors = 674306
Ave neighs/atom = 52.4548
Neighbor list builds = 14
Dangerous builds = 0

# SAVE INDENTER
print $x file Data/indenter_${count}.txt
print 0.000457345151674922 file Data/indenter_${count}.txt
print 0.000457345151674922 file Data/indenter_34.txt
0.000457345151674922
print $z append Data/indenter_${count}.txt
print 0.00140756364411683 append Data/indenter_${count}.txt
print 0.00140756364411683 append Data/indenter_34.txt
0.00140756364411683
print $w append Data/indenter_${count}.txt
print 0.003 append Data/indenter_${count}.txt
print 0.003 append Data/indenter_34.txt
0.003
print $q append Data/indenter_${count}.txt
print 1.001 append Data/indenter_${count}.txt
print 1.001 append Data/indenter_34.txt
1.001

next j
next count
jump SELF start_of_loop_4
variable j loop ${jmax}
variable j loop 20
clear
WARNING: OMP_NUM_THREADS environment is not set. (../comm.cpp:90)
  using 1 OpenMP thread(s) per MPI task

# DEFINE INITIAL CONDITIONS
# small Peridynamic cylinder hit by projectile
units		si
boundary        s s s
dimension	3
atom_style      peri
atom_modify	map array
neighbor        0.0010 bin

# small target
lattice         sc 0.001
Lattice spacing in x,y,z = 0.001 0.001 0.001
region          target cylinder y 0.0 0.0 0.037 -0.0025 0.0 units box
create_box      1 target
Created orthogonal box = (-0.037 -0.0025 -0.037) to (0.037 0 0.037)
  1 by 1 by 1 MPI processor grid
create_atoms    1 region target
Created 12855 atoms

pair_style      peri/pmb
pair_coeff      * * 1.6863e22 0.0015001 0.0005 0.25
set             group all density 2200
  12855 settings made for density
set             group all volume 1.25e-10
  12855 settings made for volume
velocity        all set 0.0 0.0 0.0 sum no units box
fix             1 all nve
fix             2 all indent 1e16 sphere v_x v_y v_z v_w units box


print "Iteration:  i = $i , j = $j, k = $k, l = $l "
Iteration:  i = 4 , j = 5, k = 1, l = 1 

print " "
 
print " "
 
print "----------------------------------------------------------------"
----------------------------------------------------------------
print "Iteration ${count} of ${countmax}"
Iteration 35 of 2325
print "----------------------------------------------------------------"
----------------------------------------------------------------
print " "
 

# Reset current timestep
reset_timestep 0

# spherical indenter to shatter target

#q is velocity for indent.txt
variable         q equal "1+(0.001*v_l)"

# indenter radius (w) for indent.txt
variable         w equal "0.0020+(0.001*v_k)"

#disk radius(v_r)
variable r equal 0.037

variable        y0 equal 0.00510
variable        vy equal -100
variable        y equal "v_y0 + v_q*step*dt*v_vy"

#Hit the whole disk
#variable        x equal "cos((PI/2)*v_i/v_imax)*((v_i-1)/v_imax*v_r)"
#variable        z equal "sin((PI/2)*v_j/v_jmax)*((v_j-1)/v_jmax*v_r)"

#Hit the disk reduced 5times compare to disk size
variable        x equal "cos((2*PI)*v_j/v_jmax)*(v_i/v_imax)*v_r*(0.3)"
variable        z equal "sin((2*PI)*v_j/v_jmax)*(v_i/v_imax)*v_r*(0.3)"

compute         1 all damage/atom
timestep        1.0e-7
thermo          100

dump            ${count} all custom 1000 Data/dump_${count}.peri id type x y z c_1
dump            35 all custom 1000 Data/dump_${count}.peri id type x y z c_1
dump            35 all custom 1000 Data/dump_35.peri id type x y z c_1

run             1000
Neighbor list info ...
  2 neighbor list requests
  update every 1 steps, delay 10 steps, check yes
  max neighbors/atom: 2000, page size: 100000
  master list distance cutoff = 0.0025001
  ghost atom cutoff = 0.0025001
  binsize = 0.00125005 -> bins = 60 3 60
Peridynamic bonds:
  total # of bonds = 185180
  bonds/atom = 14.4053
Memory usage per processor = 9.32606 Mbytes
Step Temp E_pair E_mol TotEng Press Volume 
       0            0            0            0            0            0 1.095912e-05 
     100            0            0            0            0            0 1.095912e-05 
     200            0            0            0            0            0 1.095912e-05 
     300 8.3561831e+22    29509.923            0     51754.35 1.3531761e+09 1.095912e-05 
     400 9.2844135e+24    1434834.2            0    3906374.8 1.5034909e+11 1.095912e-05 
     500 1.4894125e+26    9674414.6            0     49323054 2.4119113e+12 1.095912e-05 
     600 6.5856146e+26     15802984            0 1.9111415e+08 8.2173383e+12 1.4222868e-05 
     700 1.6049306e+27    7780225.6            0 4.3501789e+08 1.1116798e+13 2.5621147e-05 
     800 2.0641315e+27     10190297            0 5.5966872e+08 1.0139154e+13 3.6129144e-05 
     900 2.1093158e+27    5335915.4            0 5.6684254e+08 7.2533603e+12 5.1608873e-05 
    1000 2.1069119e+27      3402770            0 5.6426946e+08 5.8963553e+12 6.341394e-05 
Loop time of 20.2033 on 1 procs for 1000 steps with 12855 atoms

97.5% CPU use with 1 MPI tasks x 1 OpenMP threads

MPI task timing breakdown:
Section |  min time  |  avg time  |  max time  |%varavg| %total
---------------------------------------------------------------
Pair    | 18.986     | 18.986     | 18.986     |   0.0 | 93.98
Neigh   | 0.18359    | 0.18359    | 0.18359    |   0.0 |  0.91
Comm    | 0.0050063  | 0.0050063  | 0.0050063  |   0.0 |  0.02
Output  | 0.035959   | 0.035959   | 0.035959   |   0.0 |  0.18
Modify  | 0.77174    | 0.77174    | 0.77174    |   0.0 |  3.82
Other   |            | 0.2207     |            |       |  1.09

Nlocal:    12855 ave 12855 max 12855 min
Histogram: 1 0 0 0 0 0 0 0 0 0
Nghost:    0 ave 0 max 0 min
Histogram: 1 0 0 0 0 0 0 0 0 0
Neighs:    333396 ave 333396 max 333396 min
Histogram: 1 0 0 0 0 0 0 0 0 0
FullNghs:  674306 ave 674306 max 674306 min
Histogram: 1 0 0 0 0 0 0 0 0 0

Total # of neighbors = 674306
Ave neighs/atom = 52.4548
Neighbor list builds = 14
Dangerous builds = 0

# SAVE INDENTER
print $x file Data/indenter_${count}.txt
print 9.06238631369041e-20 file Data/indenter_${count}.txt
print 9.06238631369041e-20 file Data/indenter_35.txt
9.06238631369041e-20
print $z append Data/indenter_${count}.txt
print 0.00148 append Data/indenter_${count}.txt
print 0.00148 append Data/indenter_35.txt
0.00148
print $w append Data/indenter_${count}.txt
print 0.003 append Data/indenter_${count}.txt
print 0.003 append Data/indenter_35.txt
0.003
print $q append Data/indenter_${count}.txt
print 1.001 append Data/indenter_${count}.txt
print 1.001 append Data/indenter_35.txt
1.001

next j
next count
jump SELF start_of_loop_4
variable j loop ${jmax}
variable j loop 20
clear
WARNING: OMP_NUM_THREADS environment is not set. (../comm.cpp:90)
  using 1 OpenMP thread(s) per MPI task

# DEFINE INITIAL CONDITIONS
# small Peridynamic cylinder hit by projectile
units		si
boundary        s s s
dimension	3
atom_style      peri
atom_modify	map array
neighbor        0.0010 bin

# small target
lattice         sc 0.001
Lattice spacing in x,y,z = 0.001 0.001 0.001
region          target cylinder y 0.0 0.0 0.037 -0.0025 0.0 units box
create_box      1 target
Created orthogonal box = (-0.037 -0.0025 -0.037) to (0.037 0 0.037)
  1 by 1 by 1 MPI processor grid
create_atoms    1 region target
Created 12855 atoms

pair_style      peri/pmb
pair_coeff      * * 1.6863e22 0.0015001 0.0005 0.25
set             group all density 2200
  12855 settings made for density
set             group all volume 1.25e-10
  12855 settings made for volume
velocity        all set 0.0 0.0 0.0 sum no units box
fix             1 all nve
fix             2 all indent 1e16 sphere v_x v_y v_z v_w units box


print "Iteration:  i = $i , j = $j, k = $k, l = $l "
Iteration:  i = 4 , j = 6, k = 1, l = 1 

print " "
 
print " "
 
print "----------------------------------------------------------------"
----------------------------------------------------------------
print "Iteration ${count} of ${countmax}"
Iteration 36 of 2325
print "----------------------------------------------------------------"
----------------------------------------------------------------
print " "
 

# Reset current timestep
reset_timestep 0

# spherical indenter to shatter target

#q is velocity for indent.txt
variable         q equal "1+(0.001*v_l)"

# indenter radius (w) for indent.txt
variable         w equal "0.0020+(0.001*v_k)"

#disk radius(v_r)
variable r equal 0.037

variable        y0 equal 0.00510
variable        vy equal -100
variable        y equal "v_y0 + v_q*step*dt*v_vy"

#Hit the whole disk
#variable        x equal "cos((PI/2)*v_i/v_imax)*((v_i-1)/v_imax*v_r)"
#variable        z equal "sin((PI/2)*v_j/v_jmax)*((v_j-1)/v_jmax*v_r)"

#Hit the disk reduced 5times compare to disk size
variable        x equal "cos((2*PI)*v_j/v_jmax)*(v_i/v_imax)*v_r*(0.3)"
variable        z equal "sin((2*PI)*v_j/v_jmax)*(v_i/v_imax)*v_r*(0.3)"

compute         1 all damage/atom
timestep        1.0e-7
thermo          100

dump            ${count} all custom 1000 Data/dump_${count}.peri id type x y z c_1
dump            36 all custom 1000 Data/dump_${count}.peri id type x y z c_1
dump            36 all custom 1000 Data/dump_36.peri id type x y z c_1

run             1000
Neighbor list info ...
  2 neighbor list requests
  update every 1 steps, delay 10 steps, check yes
  max neighbors/atom: 2000, page size: 100000
  master list distance cutoff = 0.0025001
  ghost atom cutoff = 0.0025001
  binsize = 0.00125005 -> bins = 60 3 60
Peridynamic bonds:
  total # of bonds = 185180
  bonds/atom = 14.4053
Memory usage per processor = 9.32606 Mbytes
Step Temp E_pair E_mol TotEng Press Volume 
       0            0            0            0            0            0 1.095912e-05 
     100            0            0            0            0            0 1.095912e-05 
     200            0            0            0            0            0 1.095912e-05 
     300 8.2658744e+22    29558.397            0    51562.419 1.3385518e+09 1.095912e-05 
     400 9.4975781e+24    1515100.2            0      4043386 1.5380102e+11 1.095912e-05 
     500 1.4978413e+26    8761455.7            0     48634472 2.4255607e+12 1.095912e-05 
     600 6.2120724e+26     15295529            0 1.8066289e+08 7.8181601e+12 1.4101132e-05 
     700 1.5091353e+27     10753069            0 4.1248973e+08 1.2340763e+13 2.1702422e-05 
     800 2.0572458e+27    4469682.6            0 5.521151e+08 1.0963901e+13 3.3299914e-05 
     900 2.115618e+27    4214619.1            0 5.6739892e+08 7.9041381e+12 4.750122e-05 
    1000 2.1171083e+27    3554737.5            0 5.6713575e+08 6.1536985e+12 6.1056074e-05 
Loop time of 20.5636 on 1 procs for 1000 steps with 12855 atoms

96.1% CPU use with 1 MPI tasks x 1 OpenMP threads

MPI task timing breakdown:
Section |  min time  |  avg time  |  max time  |%varavg| %total
---------------------------------------------------------------
Pair    | 19.297     | 19.297     | 19.297     |   0.0 | 93.84
Neigh   | 0.18735    | 0.18735    | 0.18735    |   0.0 |  0.91
Comm    | 0.0051103  | 0.0051103  | 0.0051103  |   0.0 |  0.02
Output  | 0.035578   | 0.035578   | 0.035578   |   0.0 |  0.17
Modify  | 0.80835    | 0.80835    | 0.80835    |   0.0 |  3.93
Other   |            | 0.2305     |            |       |  1.12

Nlocal:    12855 ave 12855 max 12855 min
Histogram: 1 0 0 0 0 0 0 0 0 0
Nghost:    0 ave 0 max 0 min
Histogram: 1 0 0 0 0 0 0 0 0 0
Neighs:    333594 ave 333594 max 333594 min
Histogram: 1 0 0 0 0 0 0 0 0 0
FullNghs:  674306 ave 674306 max 674306 min
Histogram: 1 0 0 0 0 0 0 0 0 0

Total # of neighbors = 674306
Ave neighs/atom = 52.4548
Neighbor list builds = 14
Dangerous builds = 0

# SAVE INDENTER
print $x file Data/indenter_${count}.txt
print -0.000457345151674922 file Data/indenter_${count}.txt
print -0.000457345151674922 file Data/indenter_36.txt
-0.000457345151674922
print $z append Data/indenter_${count}.txt
print 0.00140756364411683 append Data/indenter_${count}.txt
print 0.00140756364411683 append Data/indenter_36.txt
0.00140756364411683
print $w append Data/indenter_${count}.txt
print 0.003 append Data/indenter_${count}.txt
print 0.003 append Data/indenter_36.txt
0.003
print $q append Data/indenter_${count}.txt
print 1.001 append Data/indenter_${count}.txt
print 1.001 append Data/indenter_36.txt
1.001

next j
next count
jump SELF start_of_loop_4
variable j loop ${jmax}
variable j loop 20
clear
WARNING: OMP_NUM_THREADS environment is not set. (../comm.cpp:90)
  using 1 OpenMP thread(s) per MPI task

# DEFINE INITIAL CONDITIONS
# small Peridynamic cylinder hit by projectile
units		si
boundary        s s s
dimension	3
atom_style      peri
atom_modify	map array
neighbor        0.0010 bin

# small target
lattice         sc 0.001
Lattice spacing in x,y,z = 0.001 0.001 0.001
region          target cylinder y 0.0 0.0 0.037 -0.0025 0.0 units box
create_box      1 target
Created orthogonal box = (-0.037 -0.0025 -0.037) to (0.037 0 0.037)
  1 by 1 by 1 MPI processor grid
create_atoms    1 region target
Created 12855 atoms

pair_style      peri/pmb
pair_coeff      * * 1.6863e22 0.0015001 0.0005 0.25
set             group all density 2200
  12855 settings made for density
set             group all volume 1.25e-10
  12855 settings made for volume
velocity        all set 0.0 0.0 0.0 sum no units box
fix             1 all nve
fix             2 all indent 1e16 sphere v_x v_y v_z v_w units box


print "Iteration:  i = $i , j = $j, k = $k, l = $l "
Iteration:  i = 4 , j = 7, k = 1, l = 1 

print " "
 
print " "
 
print "----------------------------------------------------------------"
----------------------------------------------------------------
print "Iteration ${count} of ${countmax}"
Iteration 37 of 2325
print "----------------------------------------------------------------"
----------------------------------------------------------------
print " "
 

# Reset current timestep
reset_timestep 0

# spherical indenter to shatter target

#q is velocity for indent.txt
variable         q equal "1+(0.001*v_l)"

# indenter radius (w) for indent.txt
variable         w equal "0.0020+(0.001*v_k)"

#disk radius(v_r)
variable r equal 0.037

variable        y0 equal 0.00510
variable        vy equal -100
variable        y equal "v_y0 + v_q*step*dt*v_vy"

#Hit the whole disk
#variable        x equal "cos((PI/2)*v_i/v_imax)*((v_i-1)/v_imax*v_r)"
#variable        z equal "sin((PI/2)*v_j/v_jmax)*((v_j-1)/v_jmax*v_r)"

#Hit the disk reduced 5times compare to disk size
variable        x equal "cos((2*PI)*v_j/v_jmax)*(v_i/v_imax)*v_r*(0.3)"
variable        z equal "sin((2*PI)*v_j/v_jmax)*(v_i/v_imax)*v_r*(0.3)"

compute         1 all damage/atom
timestep        1.0e-7
thermo          100

dump            ${count} all custom 1000 Data/dump_${count}.peri id type x y z c_1
dump            37 all custom 1000 Data/dump_${count}.peri id type x y z c_1
dump            37 all custom 1000 Data/dump_37.peri id type x y z c_1

run             1000
Neighbor list info ...
  2 neighbor list requests
  update every 1 steps, delay 10 steps, check yes
  max neighbors/atom: 2000, page size: 100000
  master list distance cutoff = 0.0025001
  ghost atom cutoff = 0.0025001
  binsize = 0.00125005 -> bins = 60 3 60
Peridynamic bonds:
  total # of bonds = 185180
  bonds/atom = 14.4053
Memory usage per processor = 9.32606 Mbytes
Step Temp E_pair E_mol TotEng Press Volume 
       0            0            0            0            0            0 1.095912e-05 
     100            0            0            0            0            0 1.095912e-05 
     200            0            0            0            0            0 1.095912e-05 
     300 8.4271565e+22    29377.398            0    51810.758 1.3646693e+09 1.095912e-05 
     400 9.4426908e+24    1396373.7            0    3910048.2 1.5291219e+11 1.095912e-05 
     500 1.5325984e+26    9729697.9            0     50527958 2.4818452e+12 1.095912e-05 
     600 6.6284182e+26     18559079            0 1.9500969e+08 8.4604508e+12 1.3903957e-05 
     700 1.5744274e+27    9956903.8            0 4.2907452e+08 1.1442801e+13 2.4418126e-05 
     800 2.0437246e+27    5813586.7            0 5.4985961e+08 9.2726878e+12 3.9114587e-05 
     900 2.0862806e+27    4415156.7            0 5.5978974e+08 6.8733914e+12 5.3867109e-05 
    1000 2.0839352e+27    3242494.2            0 5.5799273e+08 5.1143096e+12 7.2313474e-05 
Loop time of 20.3148 on 1 procs for 1000 steps with 12855 atoms

97.1% CPU use with 1 MPI tasks x 1 OpenMP threads

MPI task timing breakdown:
Section |  min time  |  avg time  |  max time  |%varavg| %total
---------------------------------------------------------------
Pair    | 19.048     | 19.048     | 19.048     |   0.0 | 93.77
Neigh   | 0.22718    | 0.22718    | 0.22718    |   0.0 |  1.12
Comm    | 0.0091488  | 0.0091488  | 0.0091488  |   0.0 |  0.05
Output  | 0.034644   | 0.034644   | 0.034644   |   0.0 |  0.17
Modify  | 0.77395    | 0.77395    | 0.77395    |   0.0 |  3.81
Other   |            | 0.2215     |            |       |  1.09

Nlocal:    12855 ave 12855 max 12855 min
Histogram: 1 0 0 0 0 0 0 0 0 0
Nghost:    0 ave 0 max 0 min
Histogram: 1 0 0 0 0 0 0 0 0 0
Neighs:    333501 ave 333501 max 333501 min
Histogram: 1 0 0 0 0 0 0 0 0 0
FullNghs:  674306 ave 674306 max 674306 min
Histogram: 1 0 0 0 0 0 0 0 0 0

Total # of neighbors = 674306
Ave neighs/atom = 52.4548
Neighbor list builds = 17
Dangerous builds = 0

# SAVE INDENTER
print $x file Data/indenter_${count}.txt
print -0.00086992217339286 file Data/indenter_${count}.txt
print -0.00086992217339286 file Data/indenter_37.txt
-0.00086992217339286
print $z append Data/indenter_${count}.txt
print 0.00119734515167492 append Data/indenter_${count}.txt
print 0.00119734515167492 append Data/indenter_37.txt
0.00119734515167492
print $w append Data/indenter_${count}.txt
print 0.003 append Data/indenter_${count}.txt
print 0.003 append Data/indenter_37.txt
0.003
print $q append Data/indenter_${count}.txt
print 1.001 append Data/indenter_${count}.txt
print 1.001 append Data/indenter_37.txt
1.001

next j
next count
jump SELF start_of_loop_4
variable j loop ${jmax}
variable j loop 20
clear
WARNING: OMP_NUM_THREADS environment is not set. (../comm.cpp:90)
  using 1 OpenMP thread(s) per MPI task

# DEFINE INITIAL CONDITIONS
# small Peridynamic cylinder hit by projectile
units		si
boundary        s s s
dimension	3
atom_style      peri
atom_modify	map array
neighbor        0.0010 bin

# small target
lattice         sc 0.001
Lattice spacing in x,y,z = 0.001 0.001 0.001
region          target cylinder y 0.0 0.0 0.037 -0.0025 0.0 units box
create_box      1 target
Created orthogonal box = (-0.037 -0.0025 -0.037) to (0.037 0 0.037)
  1 by 1 by 1 MPI processor grid
create_atoms    1 region target
Created 12855 atoms

pair_style      peri/pmb
pair_coeff      * * 1.6863e22 0.0015001 0.0005 0.25
set             group all density 2200
  12855 settings made for density
set             group all volume 1.25e-10
  12855 settings made for volume
velocity        all set 0.0 0.0 0.0 sum no units box
fix             1 all nve
fix             2 all indent 1e16 sphere v_x v_y v_z v_w units box


print "Iteration:  i = $i , j = $j, k = $k, l = $l "
Iteration:  i = 4 , j = 8, k = 1, l = 1 

print " "
 
print " "
 
print "----------------------------------------------------------------"
----------------------------------------------------------------
print "Iteration ${count} of ${countmax}"
Iteration 38 of 2325
print "----------------------------------------------------------------"
----------------------------------------------------------------
print " "
 

# Reset current timestep
reset_timestep 0

# spherical indenter to shatter target

#q is velocity for indent.txt
variable         q equal "1+(0.001*v_l)"

# indenter radius (w) for indent.txt
variable         w equal "0.0020+(0.001*v_k)"

#disk radius(v_r)
variable r equal 0.037

variable        y0 equal 0.00510
variable        vy equal -100
variable        y equal "v_y0 + v_q*step*dt*v_vy"

#Hit the whole disk
#variable        x equal "cos((PI/2)*v_i/v_imax)*((v_i-1)/v_imax*v_r)"
#variable        z equal "sin((PI/2)*v_j/v_jmax)*((v_j-1)/v_jmax*v_r)"

#Hit the disk reduced 5times compare to disk size
variable        x equal "cos((2*PI)*v_j/v_jmax)*(v_i/v_imax)*v_r*(0.3)"
variable        z equal "sin((2*PI)*v_j/v_jmax)*(v_i/v_imax)*v_r*(0.3)"

compute         1 all damage/atom
timestep        1.0e-7
thermo          100

dump            ${count} all custom 1000 Data/dump_${count}.peri id type x y z c_1
dump            38 all custom 1000 Data/dump_${count}.peri id type x y z c_1
dump            38 all custom 1000 Data/dump_38.peri id type x y z c_1

run             1000
Neighbor list info ...
  2 neighbor list requests
  update every 1 steps, delay 10 steps, check yes
  max neighbors/atom: 2000, page size: 100000
  master list distance cutoff = 0.0025001
  ghost atom cutoff = 0.0025001
  binsize = 0.00125005 -> bins = 60 3 60
Peridynamic bonds:
  total # of bonds = 185180
  bonds/atom = 14.4053
Memory usage per processor = 9.32606 Mbytes
Step Temp E_pair E_mol TotEng Press Volume 
       0            0            0            0            0            0 1.095912e-05 
     100            0            0            0            0            0 1.095912e-05 
     200            0            0            0            0            0 1.095912e-05 
     300 8.4271565e+22    29377.398            0    51810.758 1.3646693e+09 1.095912e-05 
     400 9.4426908e+24    1396373.7            0    3910048.2 1.5291219e+11 1.095912e-05 
     500 1.5325984e+26    9729697.9            0     50527958 2.4818452e+12 1.095912e-05 
     600 6.6284182e+26     18559079            0 1.9500969e+08 8.4604508e+12 1.3903957e-05 
     700 1.5744274e+27    9956903.8            0 4.2907452e+08 1.1442801e+13 2.4418126e-05 
     800 2.0437246e+27    5813586.7            0 5.4985961e+08 9.2726878e+12 3.9114587e-05 
     900 2.0862806e+27    4415156.7            0 5.5978974e+08 6.8733914e+12 5.3867109e-05 
    1000 2.0839352e+27    3242494.2            0 5.5799273e+08 5.1143096e+12 7.2313474e-05 
Loop time of 20.2797 on 1 procs for 1000 steps with 12855 atoms

97.3% CPU use with 1 MPI tasks x 1 OpenMP threads

MPI task timing breakdown:
Section |  min time  |  avg time  |  max time  |%varavg| %total
---------------------------------------------------------------
Pair    | 18.963     | 18.963     | 18.963     |   0.0 | 93.51
Neigh   | 0.23518    | 0.23518    | 0.23518    |   0.0 |  1.16
Comm    | 0.01067    | 0.01067    | 0.01067    |   0.0 |  0.05
Output  | 0.038733   | 0.038733   | 0.038733   |   0.0 |  0.19
Modify  | 0.80624    | 0.80624    | 0.80624    |   0.0 |  3.98
Other   |            | 0.2261     |            |       |  1.11

Nlocal:    12855 ave 12855 max 12855 min
Histogram: 1 0 0 0 0 0 0 0 0 0
Nghost:    0 ave 0 max 0 min
Histogram: 1 0 0 0 0 0 0 0 0 0
Neighs:    333501 ave 333501 max 333501 min
Histogram: 1 0 0 0 0 0 0 0 0 0
FullNghs:  674306 ave 674306 max 674306 min
Histogram: 1 0 0 0 0 0 0 0 0 0

Total # of neighbors = 674306
Ave neighs/atom = 52.4548
Neighbor list builds = 17
Dangerous builds = 0

# SAVE INDENTER
print $x file Data/indenter_${count}.txt
print -0.00119734515167492 file Data/indenter_${count}.txt
print -0.00119734515167492 file Data/indenter_38.txt
-0.00119734515167492
print $z append Data/indenter_${count}.txt
print 0.00086992217339286 append Data/indenter_${count}.txt
print 0.00086992217339286 append Data/indenter_38.txt
0.00086992217339286
print $w append Data/indenter_${count}.txt
print 0.003 append Data/indenter_${count}.txt
print 0.003 append Data/indenter_38.txt
0.003
print $q append Data/indenter_${count}.txt
print 1.001 append Data/indenter_${count}.txt
print 1.001 append Data/indenter_38.txt
1.001

next j
next count
jump SELF start_of_loop_4
variable j loop ${jmax}
variable j loop 20
clear
WARNING: OMP_NUM_THREADS environment is not set. (../comm.cpp:90)
  using 1 OpenMP thread(s) per MPI task

# DEFINE INITIAL CONDITIONS
# small Peridynamic cylinder hit by projectile
units		si
boundary        s s s
dimension	3
atom_style      peri
atom_modify	map array
neighbor        0.0010 bin

# small target
lattice         sc 0.001
Lattice spacing in x,y,z = 0.001 0.001 0.001
region          target cylinder y 0.0 0.0 0.037 -0.0025 0.0 units box
create_box      1 target
Created orthogonal box = (-0.037 -0.0025 -0.037) to (0.037 0 0.037)
  1 by 1 by 1 MPI processor grid
create_atoms    1 region target
Created 12855 atoms

pair_style      peri/pmb
pair_coeff      * * 1.6863e22 0.0015001 0.0005 0.25
set             group all density 2200
  12855 settings made for density
set             group all volume 1.25e-10
  12855 settings made for volume
velocity        all set 0.0 0.0 0.0 sum no units box
fix             1 all nve
fix             2 all indent 1e16 sphere v_x v_y v_z v_w units box


print "Iteration:  i = $i , j = $j, k = $k, l = $l "
Iteration:  i = 4 , j = 9, k = 1, l = 1 

print " "
 
print " "
 
print "----------------------------------------------------------------"
----------------------------------------------------------------
print "Iteration ${count} of ${countmax}"
Iteration 39 of 2325
print "----------------------------------------------------------------"
----------------------------------------------------------------
print " "
 

# Reset current timestep
reset_timestep 0

# spherical indenter to shatter target

#q is velocity for indent.txt
variable         q equal "1+(0.001*v_l)"

# indenter radius (w) for indent.txt
variable         w equal "0.0020+(0.001*v_k)"

#disk radius(v_r)
variable r equal 0.037

variable        y0 equal 0.00510
variable        vy equal -100
variable        y equal "v_y0 + v_q*step*dt*v_vy"

#Hit the whole disk
#variable        x equal "cos((PI/2)*v_i/v_imax)*((v_i-1)/v_imax*v_r)"
#variable        z equal "sin((PI/2)*v_j/v_jmax)*((v_j-1)/v_jmax*v_r)"

#Hit the disk reduced 5times compare to disk size
variable        x equal "cos((2*PI)*v_j/v_jmax)*(v_i/v_imax)*v_r*(0.3)"
variable        z equal "sin((2*PI)*v_j/v_jmax)*(v_i/v_imax)*v_r*(0.3)"

compute         1 all damage/atom
timestep        1.0e-7
thermo          100

dump            ${count} all custom 1000 Data/dump_${count}.peri id type x y z c_1
dump            39 all custom 1000 Data/dump_${count}.peri id type x y z c_1
dump            39 all custom 1000 Data/dump_39.peri id type x y z c_1

run             1000
Neighbor list info ...
  2 neighbor list requests
  update every 1 steps, delay 10 steps, check yes
  max neighbors/atom: 2000, page size: 100000
  master list distance cutoff = 0.0025001
  ghost atom cutoff = 0.0025001
  binsize = 0.00125005 -> bins = 60 3 60
Peridynamic bonds:
  total # of bonds = 185180
  bonds/atom = 14.4053
Memory usage per processor = 9.32606 Mbytes
Step Temp E_pair E_mol TotEng Press Volume 
       0            0            0            0            0            0 1.095912e-05 
     100            0            0            0            0            0 1.095912e-05 
     200            0            0            0            0            0 1.095912e-05 
     300 8.2658744e+22    29558.397            0    51562.419 1.3385518e+09 1.095912e-05 
     400 9.4975781e+24    1515100.2            0      4043386 1.5380102e+11 1.095912e-05 
     500 1.4978413e+26    8761455.7            0     48634472 2.4255607e+12 1.095912e-05 
     600 6.2120724e+26     15295529            0 1.8066289e+08 7.8181601e+12 1.4101132e-05 
     700 1.5091353e+27     10753069            0 4.1248973e+08 1.2340763e+13 2.1702422e-05 
     800 2.0572458e+27    4469682.6            0 5.521151e+08 1.0963901e+13 3.3299914e-05 
     900 2.115618e+27    4214619.1            0 5.6739892e+08 7.9041381e+12 4.750122e-05 
    1000 2.1171083e+27    3554737.5            0 5.6713575e+08 6.1536985e+12 6.1056074e-05 
Loop time of 20.638 on 1 procs for 1000 steps with 12855 atoms

96.2% CPU use with 1 MPI tasks x 1 OpenMP threads

MPI task timing breakdown:
Section |  min time  |  avg time  |  max time  |%varavg| %total
---------------------------------------------------------------
Pair    | 19.297     | 19.297     | 19.297     |   0.0 | 93.50
Neigh   | 0.18614    | 0.18614    | 0.18614    |   0.0 |  0.90
Comm    | 0.0073195  | 0.0073195  | 0.0073195  |   0.0 |  0.04
Output  | 0.045176   | 0.045176   | 0.045176   |   0.0 |  0.22
Modify  | 0.83753    | 0.83753    | 0.83753    |   0.0 |  4.06
Other   |            | 0.2646     |            |       |  1.28

Nlocal:    12855 ave 12855 max 12855 min
Histogram: 1 0 0 0 0 0 0 0 0 0
Nghost:    0 ave 0 max 0 min
Histogram: 1 0 0 0 0 0 0 0 0 0
Neighs:    333594 ave 333594 max 333594 min
Histogram: 1 0 0 0 0 0 0 0 0 0
FullNghs:  674306 ave 674306 max 674306 min
Histogram: 1 0 0 0 0 0 0 0 0 0

Total # of neighbors = 674306
Ave neighs/atom = 52.4548
Neighbor list builds = 14
Dangerous builds = 0

# SAVE INDENTER
print $x file Data/indenter_${count}.txt
print -0.00140756364411683 file Data/indenter_${count}.txt
print -0.00140756364411683 file Data/indenter_39.txt
-0.00140756364411683
print $z append Data/indenter_${count}.txt
print 0.000457345151674922 append Data/indenter_${count}.txt
print 0.000457345151674922 append Data/indenter_39.txt
0.000457345151674922
print $w append Data/indenter_${count}.txt
print 0.003 append Data/indenter_${count}.txt
print 0.003 append Data/indenter_39.txt
0.003
print $q append Data/indenter_${count}.txt
print 1.001 append Data/indenter_${count}.txt
print 1.001 append Data/indenter_39.txt
1.001

next j
next count
jump SELF start_of_loop_4
variable j loop ${jmax}
variable j loop 20
clear
WARNING: OMP_NUM_THREADS environment is not set. (../comm.cpp:90)
  using 1 OpenMP thread(s) per MPI task

# DEFINE INITIAL CONDITIONS
# small Peridynamic cylinder hit by projectile
units		si
boundary        s s s
dimension	3
atom_style      peri
atom_modify	map array
neighbor        0.0010 bin

# small target
lattice         sc 0.001
Lattice spacing in x,y,z = 0.001 0.001 0.001
region          target cylinder y 0.0 0.0 0.037 -0.0025 0.0 units box
create_box      1 target
Created orthogonal box = (-0.037 -0.0025 -0.037) to (0.037 0 0.037)
  1 by 1 by 1 MPI processor grid
create_atoms    1 region target
Created 12855 atoms

pair_style      peri/pmb
pair_coeff      * * 1.6863e22 0.0015001 0.0005 0.25
set             group all density 2200
  12855 settings made for density
set             group all volume 1.25e-10
  12855 settings made for volume
velocity        all set 0.0 0.0 0.0 sum no units box
fix             1 all nve
fix             2 all indent 1e16 sphere v_x v_y v_z v_w units box


print "Iteration:  i = $i , j = $j, k = $k, l = $l "
Iteration:  i = 4 , j = 10, k = 1, l = 1 

print " "
 
print " "
 
print "----------------------------------------------------------------"
----------------------------------------------------------------
print "Iteration ${count} of ${countmax}"
Iteration 40 of 2325
print "----------------------------------------------------------------"
----------------------------------------------------------------
print " "
 

# Reset current timestep
reset_timestep 0

# spherical indenter to shatter target

#q is velocity for indent.txt
variable         q equal "1+(0.001*v_l)"

# indenter radius (w) for indent.txt
variable         w equal "0.0020+(0.001*v_k)"

#disk radius(v_r)
variable r equal 0.037

variable        y0 equal 0.00510
variable        vy equal -100
variable        y equal "v_y0 + v_q*step*dt*v_vy"

#Hit the whole disk
#variable        x equal "cos((PI/2)*v_i/v_imax)*((v_i-1)/v_imax*v_r)"
#variable        z equal "sin((PI/2)*v_j/v_jmax)*((v_j-1)/v_jmax*v_r)"

#Hit the disk reduced 5times compare to disk size
variable        x equal "cos((2*PI)*v_j/v_jmax)*(v_i/v_imax)*v_r*(0.3)"
variable        z equal "sin((2*PI)*v_j/v_jmax)*(v_i/v_imax)*v_r*(0.3)"

compute         1 all damage/atom
timestep        1.0e-7
thermo          100

dump            ${count} all custom 1000 Data/dump_${count}.peri id type x y z c_1
dump            40 all custom 1000 Data/dump_${count}.peri id type x y z c_1
dump            40 all custom 1000 Data/dump_40.peri id type x y z c_1

run             1000
Neighbor list info ...
  2 neighbor list requests
  update every 1 steps, delay 10 steps, check yes
  max neighbors/atom: 2000, page size: 100000
  master list distance cutoff = 0.0025001
  ghost atom cutoff = 0.0025001
  binsize = 0.00125005 -> bins = 60 3 60
Peridynamic bonds:
  total # of bonds = 185180
  bonds/atom = 14.4053
Memory usage per processor = 9.32606 Mbytes
Step Temp E_pair E_mol TotEng Press Volume 
       0            0            0            0            0            0 1.095912e-05 
     100            0            0            0            0            0 1.095912e-05 
     200            0            0            0            0            0 1.095912e-05 
     300 8.3561831e+22    29509.923            0     51754.35 1.3531761e+09 1.095912e-05 
     400 9.2844135e+24    1434834.2            0    3906374.8 1.5034909e+11 1.095912e-05 
     500 1.4894125e+26    9674414.6            0     49323054 2.4119113e+12 1.095912e-05 
     600 6.5856146e+26     15802984            0 1.9111415e+08 8.2173383e+12 1.4222868e-05 
     700 1.6049306e+27    7780225.6            0 4.3501789e+08 1.1116798e+13 2.5621147e-05 
     800 2.0641315e+27     10190297            0 5.5966872e+08 1.0139154e+13 3.6129144e-05 
     900 2.1093158e+27    5335915.4            0 5.6684254e+08 7.2533603e+12 5.1608873e-05 
    1000 2.1069119e+27      3402770            0 5.6426946e+08 5.8963553e+12 6.341394e-05 
Loop time of 20.412 on 1 procs for 1000 steps with 12855 atoms

97.1% CPU use with 1 MPI tasks x 1 OpenMP threads

MPI task timing breakdown:
Section |  min time  |  avg time  |  max time  |%varavg| %total
---------------------------------------------------------------
Pair    | 19.093     | 19.093     | 19.093     |   0.0 | 93.54
Neigh   | 0.19306    | 0.19306    | 0.19306    |   0.0 |  0.95
Comm    | 0.0054266  | 0.0054266  | 0.0054266  |   0.0 |  0.03
Output  | 0.0345     | 0.0345     | 0.0345     |   0.0 |  0.17
Modify  | 0.83845    | 0.83845    | 0.83845    |   0.0 |  4.11
Other   |            | 0.2478     |            |       |  1.21

Nlocal:    12855 ave 12855 max 12855 min
Histogram: 1 0 0 0 0 0 0 0 0 0
Nghost:    0 ave 0 max 0 min
Histogram: 1 0 0 0 0 0 0 0 0 0
Neighs:    333396 ave 333396 max 333396 min
Histogram: 1 0 0 0 0 0 0 0 0 0
FullNghs:  674306 ave 674306 max 674306 min
Histogram: 1 0 0 0 0 0 0 0 0 0

Total # of neighbors = 674306
Ave neighs/atom = 52.4548
Neighbor list builds = 14
Dangerous builds = 0

# SAVE INDENTER
print $x file Data/indenter_${count}.txt
print -0.00148 file Data/indenter_${count}.txt
print -0.00148 file Data/indenter_40.txt
-0.00148
print $z append Data/indenter_${count}.txt
print 1.81247726273808e-19 append Data/indenter_${count}.txt
print 1.81247726273808e-19 append Data/indenter_40.txt
1.81247726273808e-19
print $w append Data/indenter_${count}.txt
print 0.003 append Data/indenter_${count}.txt
print 0.003 append Data/indenter_40.txt
0.003
print $q append Data/indenter_${count}.txt
print 1.001 append Data/indenter_${count}.txt
print 1.001 append Data/indenter_40.txt
1.001

next j
next count
jump SELF start_of_loop_4
variable j loop ${jmax}
variable j loop 20
clear
WARNING: OMP_NUM_THREADS environment is not set. (../comm.cpp:90)
  using 1 OpenMP thread(s) per MPI task

# DEFINE INITIAL CONDITIONS
# small Peridynamic cylinder hit by projectile
units		si
boundary        s s s
dimension	3
atom_style      peri
atom_modify	map array
neighbor        0.0010 bin

# small target
lattice         sc 0.001
Lattice spacing in x,y,z = 0.001 0.001 0.001
region          target cylinder y 0.0 0.0 0.037 -0.0025 0.0 units box
create_box      1 target
Created orthogonal box = (-0.037 -0.0025 -0.037) to (0.037 0 0.037)
  1 by 1 by 1 MPI processor grid
create_atoms    1 region target
Created 12855 atoms

pair_style      peri/pmb
pair_coeff      * * 1.6863e22 0.0015001 0.0005 0.25
set             group all density 2200
  12855 settings made for density
set             group all volume 1.25e-10
  12855 settings made for volume
velocity        all set 0.0 0.0 0.0 sum no units box
fix             1 all nve
fix             2 all indent 1e16 sphere v_x v_y v_z v_w units box


print "Iteration:  i = $i , j = $j, k = $k, l = $l "
Iteration:  i = 4 , j = 11, k = 1, l = 1 

print " "
 
print " "
 
print "----------------------------------------------------------------"
----------------------------------------------------------------
print "Iteration ${count} of ${countmax}"
Iteration 41 of 2325
print "----------------------------------------------------------------"
----------------------------------------------------------------
print " "
 

# Reset current timestep
reset_timestep 0

# spherical indenter to shatter target

#q is velocity for indent.txt
variable         q equal "1+(0.001*v_l)"

# indenter radius (w) for indent.txt
variable         w equal "0.0020+(0.001*v_k)"

#disk radius(v_r)
variable r equal 0.037

variable        y0 equal 0.00510
variable        vy equal -100
variable        y equal "v_y0 + v_q*step*dt*v_vy"

#Hit the whole disk
#variable        x equal "cos((PI/2)*v_i/v_imax)*((v_i-1)/v_imax*v_r)"
#variable        z equal "sin((PI/2)*v_j/v_jmax)*((v_j-1)/v_jmax*v_r)"

#Hit the disk reduced 5times compare to disk size
variable        x equal "cos((2*PI)*v_j/v_jmax)*(v_i/v_imax)*v_r*(0.3)"
variable        z equal "sin((2*PI)*v_j/v_jmax)*(v_i/v_imax)*v_r*(0.3)"

compute         1 all damage/atom
timestep        1.0e-7
thermo          100

dump            ${count} all custom 1000 Data/dump_${count}.peri id type x y z c_1
dump            41 all custom 1000 Data/dump_${count}.peri id type x y z c_1
dump            41 all custom 1000 Data/dump_41.peri id type x y z c_1

run             1000
Neighbor list info ...
  2 neighbor list requests
  update every 1 steps, delay 10 steps, check yes
  max neighbors/atom: 2000, page size: 100000
  master list distance cutoff = 0.0025001
  ghost atom cutoff = 0.0025001
  binsize = 0.00125005 -> bins = 60 3 60
Peridynamic bonds:
  total # of bonds = 185180
  bonds/atom = 14.4053
Memory usage per processor = 9.32606 Mbytes
Step Temp E_pair E_mol TotEng Press Volume 
       0            0            0            0            0            0 1.095912e-05 
     100            0            0            0            0            0 1.095912e-05 
     200            0            0            0            0            0 1.095912e-05 
     300 8.2658744e+22    29558.397            0    51562.419 1.3385518e+09 1.095912e-05 
     400 9.4975781e+24    1515100.2            0      4043386 1.5380102e+11 1.095912e-05 
     500 1.4978413e+26    8761455.7            0     48634472 2.4255607e+12 1.095912e-05 
     600 6.2120724e+26     15295529            0 1.8066289e+08 7.8181601e+12 1.4101132e-05 
     700 1.5091353e+27     10753069            0 4.1248973e+08 1.2340763e+13 2.1702422e-05 
     800 2.0572458e+27    4469682.6            0 5.521151e+08 1.0963901e+13 3.3299914e-05 
     900 2.115618e+27    4214619.1            0 5.6739892e+08 7.9041381e+12 4.750122e-05 
    1000 2.1171083e+27    3554737.5            0 5.6713575e+08 6.1536985e+12 6.1056074e-05 
Loop time of 20.4504 on 1 procs for 1000 steps with 12855 atoms

96.9% CPU use with 1 MPI tasks x 1 OpenMP threads

MPI task timing breakdown:
Section |  min time  |  avg time  |  max time  |%varavg| %total
---------------------------------------------------------------
Pair    | 19.13      | 19.13      | 19.13      |   0.0 | 93.54
Neigh   | 0.18193    | 0.18193    | 0.18193    |   0.0 |  0.89
Comm    | 0.0053277  | 0.0053277  | 0.0053277  |   0.0 |  0.03
Output  | 0.036535   | 0.036535   | 0.036535   |   0.0 |  0.18
Modify  | 0.83637    | 0.83637    | 0.83637    |   0.0 |  4.09
Other   |            | 0.2601     |            |       |  1.27

Nlocal:    12855 ave 12855 max 12855 min
Histogram: 1 0 0 0 0 0 0 0 0 0
Nghost:    0 ave 0 max 0 min
Histogram: 1 0 0 0 0 0 0 0 0 0
Neighs:    333594 ave 333594 max 333594 min
Histogram: 1 0 0 0 0 0 0 0 0 0
FullNghs:  674306 ave 674306 max 674306 min
Histogram: 1 0 0 0 0 0 0 0 0 0

Total # of neighbors = 674306
Ave neighs/atom = 52.4548
Neighbor list builds = 14
Dangerous builds = 0

# SAVE INDENTER
print $x file Data/indenter_${count}.txt
print -0.00140756364411683 file Data/indenter_${count}.txt
print -0.00140756364411683 file Data/indenter_41.txt
-0.00140756364411683
print $z append Data/indenter_${count}.txt
print -0.000457345151674921 append Data/indenter_${count}.txt
print -0.000457345151674921 append Data/indenter_41.txt
-0.000457345151674921
print $w append Data/indenter_${count}.txt
print 0.003 append Data/indenter_${count}.txt
print 0.003 append Data/indenter_41.txt
0.003
print $q append Data/indenter_${count}.txt
print 1.001 append Data/indenter_${count}.txt
print 1.001 append Data/indenter_41.txt
1.001

next j
next count
jump SELF start_of_loop_4
variable j loop ${jmax}
variable j loop 20
clear
WARNING: OMP_NUM_THREADS environment is not set. (../comm.cpp:90)
  using 1 OpenMP thread(s) per MPI task

# DEFINE INITIAL CONDITIONS
# small Peridynamic cylinder hit by projectile
units		si
boundary        s s s
dimension	3
atom_style      peri
atom_modify	map array
neighbor        0.0010 bin

# small target
lattice         sc 0.001
Lattice spacing in x,y,z = 0.001 0.001 0.001
region          target cylinder y 0.0 0.0 0.037 -0.0025 0.0 units box
create_box      1 target
Created orthogonal box = (-0.037 -0.0025 -0.037) to (0.037 0 0.037)
  1 by 1 by 1 MPI processor grid
create_atoms    1 region target
Created 12855 atoms

pair_style      peri/pmb
pair_coeff      * * 1.6863e22 0.0015001 0.0005 0.25
set             group all density 2200
  12855 settings made for density
set             group all volume 1.25e-10
  12855 settings made for volume
velocity        all set 0.0 0.0 0.0 sum no units box
fix             1 all nve
fix             2 all indent 1e16 sphere v_x v_y v_z v_w units box


print "Iteration:  i = $i , j = $j, k = $k, l = $l "
Iteration:  i = 4 , j = 12, k = 1, l = 1 

print " "
 
print " "
 
print "----------------------------------------------------------------"
----------------------------------------------------------------
print "Iteration ${count} of ${countmax}"
Iteration 42 of 2325
print "----------------------------------------------------------------"
----------------------------------------------------------------
print " "
 

# Reset current timestep
reset_timestep 0

# spherical indenter to shatter target

#q is velocity for indent.txt
variable         q equal "1+(0.001*v_l)"

# indenter radius (w) for indent.txt
variable         w equal "0.0020+(0.001*v_k)"

#disk radius(v_r)
variable r equal 0.037

variable        y0 equal 0.00510
variable        vy equal -100
variable        y equal "v_y0 + v_q*step*dt*v_vy"

#Hit the whole disk
#variable        x equal "cos((PI/2)*v_i/v_imax)*((v_i-1)/v_imax*v_r)"
#variable        z equal "sin((PI/2)*v_j/v_jmax)*((v_j-1)/v_jmax*v_r)"

#Hit the disk reduced 5times compare to disk size
variable        x equal "cos((2*PI)*v_j/v_jmax)*(v_i/v_imax)*v_r*(0.3)"
variable        z equal "sin((2*PI)*v_j/v_jmax)*(v_i/v_imax)*v_r*(0.3)"

compute         1 all damage/atom
timestep        1.0e-7
thermo          100

dump            ${count} all custom 1000 Data/dump_${count}.peri id type x y z c_1
dump            42 all custom 1000 Data/dump_${count}.peri id type x y z c_1
dump            42 all custom 1000 Data/dump_42.peri id type x y z c_1

run             1000
Neighbor list info ...
  2 neighbor list requests
  update every 1 steps, delay 10 steps, check yes
  max neighbors/atom: 2000, page size: 100000
  master list distance cutoff = 0.0025001
  ghost atom cutoff = 0.0025001
  binsize = 0.00125005 -> bins = 60 3 60
Peridynamic bonds:
  total # of bonds = 185180
  bonds/atom = 14.4053
Memory usage per processor = 9.32606 Mbytes
Step Temp E_pair E_mol TotEng Press Volume 
       0            0            0            0            0            0 1.095912e-05 
     100            0            0            0            0            0 1.095912e-05 
     200            0            0            0            0            0 1.095912e-05 
     300 8.4271565e+22    29377.398            0    51810.758 1.3646693e+09 1.095912e-05 
     400 9.4426908e+24   